C96H72O72T16 PBEsol                     
   1.00000000000000     
    18.8521265836370020    0.0026880877765760    0.0503390727313792
     0.0027171394175930   18.8433043762856229    0.0349337198870564
     0.0479319573932817    0.0331590601507117   17.9208244702082027
   C    H    O    Ti
    96    56    72    16
Direct
  0.3478810649229263  0.9993549359808821  0.4975249068614557
  0.6522448998929248  0.0004931900581245  0.5037157469953448
  0.9995536562694803  0.6522766630816307  0.5046778837702744
  0.0003591298992773  0.3478476462206103  0.4939570459527381
  0.4991472033846832  0.8474865111808542  0.9977911756536285
  0.5007233396665619  0.1522883910019345  0.9987227075272442
  0.1524787817181309  0.4994555907792608  0.0006041294792455
  0.8477849043478943  0.5002294942560493  0.9976353301981422
  0.9263954727066148  0.5000439728295641  0.9984780737269855
  0.0738433921446292  0.4995843295804117  0.0001431339604925
  0.5004066379245203  0.0736285162973385  0.9990388830734350
  0.4994697724587296  0.9261420177306304 -0.0011541477655929
  0.0001480257611291  0.4264692337862054  0.4960702098898774
  0.9997197300199658  0.5736868505967772  0.5023528202573845
  0.5736711493005442  0.0001529932196859  0.5028926387938425
  0.4264635349639272  0.9994787002503484  0.4988134002359694
  0.9634966940110439  0.5644295594738205  0.9990680588594545
  0.0367301571132230  0.4352126049256926  0.9998169880677473
  0.5646532325410315  0.0363472227456166  0.9990868109311323
  0.4352606998152320  0.9634609080718544 -0.0005602604675737
  0.5641634066950267  0.9627040182116473  0.9989601000851241
  0.4356905549031783  0.0371115121514321 -0.0006406046345218
  0.9631202634318692  0.4354515734549324  0.9989101783545353
  0.0371251111640385  0.5641691489217812 -0.0000661590993928
  0.5365550759822852  0.0644988630852931  0.5019305239250952
  0.4635632876579913  0.9351174789238751  0.4998470050619395
  0.9353686780115383  0.5366849428008839  0.5006685367521876
  0.0645307002660684  0.4634973635869680  0.4975949238052745
  0.9356014730309903  0.4631449788352823  0.4974791226162930
  0.0643243581729650  0.5370523567537152  0.5008281890846680
  0.5371244429256607  0.9354647459432375  0.5019398866848538
  0.4630105987077484  0.0641575023126042  0.4997352879496901
  0.2278020162689421  0.2258123880080323  0.3194595802045974
  0.7738271647534342  0.7744933338658304  0.6803835440375459
  0.2237899950002479  0.2245740423737692  0.6834288816659776
  0.7744005237890402  0.7756414039864389  0.3166902550149569
  0.2253064565485380  0.7751889910118250  0.3190134460081575
  0.7751486739479121  0.2253682542316859  0.6818944797998654
  0.2241992106026151  0.7738491036247772  0.6827654243485427
  0.7751650310314792  0.2260657205687167  0.3179442107633608
  0.2739926111899568  0.7257428726773545  0.8194287385729329
  0.7237106800759392  0.2764911135823121  0.1828850757358423
  0.2739191225795198  0.7244391670298026  0.1831410017242330
  0.7281325951756552  0.2731689356581322  0.8198032147020878
  0.2751990278755105  0.2762217163331760  0.8172143408855216
  0.7244209616325691  0.7254013826885637  0.1813847696998007
  0.2753214321577512  0.2726699028094222  0.1809893944104079
  0.7248767028345665  0.7260155933731226  0.8174658843989009
  0.6969039720648087  0.6981173604938334  0.8891284299399208
  0.3013475457569828  0.2986149600065854  0.1075546117517554
  0.6984423110589590  0.6991191581288002  0.1084041316592101
  0.3034731546978377  0.3047466601907185  0.8880108572043408
  0.7025274263569289  0.2989245487845689  0.8932690203903940
  0.3017942320530325  0.6953953916559582  0.1121639452486243
  0.6947859367155067  0.3052515815902549  0.1122069795399793
  0.3007714526015772  0.6996312161814988  0.8923090025366716
  0.8030067422652352  0.1994737554346571  0.3901639205105044
  0.1964287318395566  0.8003167473618927  0.6105145424368870
  0.8014903577904503  0.1976758607096403  0.6096129677927488
  0.1995290443189515  0.8027406470362385  0.3916385807048542
  0.8031866214324536  0.8049464151981891  0.3869090959591439
  0.1953434470746892  0.1956325842051673  0.6129812009073717
  0.7996851286439410  0.7997278652645909  0.6066073147896662
  0.2019057840248302  0.2004442895333194  0.3932760258863683
  0.1941489512511548  0.2831812804747326  0.2846929010892889
  0.8075439974075986  0.7171051103749898  0.7150823219798098
  0.1909886349311196  0.2831045116559191  0.7168496483842901
  0.8071689917777978  0.7170943383439811  0.2831419079369027
  0.2831117215199183  0.8081358278693523  0.2838386391845248
  0.7174666333954896  0.1920464682867394  0.7168731639083439
  0.2821287383676654  0.8075060329802656  0.7159585374243312
  0.7170586682871163  0.1927410744356274  0.2847028899435477
  0.2823306675408900  0.1918644371818039  0.7168464331865929
  0.7159122167124697  0.8083395945900123  0.2830914221841324
  0.2851056171083177  0.1917117961260004  0.2848599481796976
  0.7162532936685511  0.8083541949159795  0.7148043137734627
  0.1912783926815267  0.7160101836120211  0.7178594182867497
  0.8078775182840447  0.2842787618811057  0.2832764778234545
  0.1914024654025162  0.7173160815946229  0.2859461424534923
  0.8089767140758948  0.2829263873231625  0.7156343779495630
  0.3074253764719017  0.7827433287927197  0.2158869290558473
  0.6939122290650936  0.2159696499546108  0.7857409216255961
  0.3069764977403954  0.7834979223849640  0.7842811523564073
  0.6913577447212750  0.2179009878223377  0.2171655387935992
  0.2179243787296599  0.3065956936436720  0.2155193385409578
  0.7830041901668745  0.6928167884325893  0.7836056143996111
  0.2167077844284998  0.3089268699666203  0.7838000796708399
  0.7821639308447508  0.6920107067233991  0.2155246622119082
  0.2161836411722095  0.6919480099519570  0.7860733540464538
  0.7821411035199706  0.3095188774341399  0.2158821128648963
  0.2156810318037169  0.6919133456399373  0.2179154357570710
  0.7855424698995339  0.3068334362512881  0.7846326384070702
  0.3080246378552786  0.2177009392423015  0.7837861681091650
  0.6909363123416231  0.7831868146858127  0.2155131019195110
  0.3089080660759908  0.2151919765575238  0.2156690777170640
  0.6917797961663370  0.7840993939592713  0.7833866494427987
  0.8527301583122741  0.6922871156472981  0.6869808706168221
  0.1493247090995221  0.3084572076240090  0.3129767291582794
  0.8526426112504826  0.6926236864154910  0.3106836189859697
  0.1451950429088734  0.3072186957341946  0.6894595814308863
  0.6923566078625151  0.1471920194526356  0.6889559764723009
  0.3081075882804795  0.8534242613838008  0.3111494929669030
  0.6929297325863137  0.1471928690865069  0.3130182046559534
  0.3066248215946519  0.8526121463084131  0.6872092085847010
  0.1461733593800745  0.6931861323669957  0.3148497436766781
  0.8539096716931320  0.3075694876120342  0.6867456458538286
  0.1460229665575485  0.6909948411331274  0.6905284242794867
  0.8533862522362564  0.3088396587583667  0.3105799114936363
  0.3100642269342446  0.1468198480071025  0.3132402333995479
  0.6915398158158694  0.8533924494538560  0.6864683842640743
  0.3064294833857987  0.1461037713721138  0.6892999347636968
  0.6914529353373953  0.8538945029521792  0.3106265772485113
  0.8059923030665799  0.3553698221483588  0.1877908939471299
  0.1917102268200027  0.6468924735640383  0.8149333390603849
  0.8109577832518613  0.3515740879137916  0.8125150415739830
  0.1906949897518450  0.6465568686197258  0.1907332486409788
  0.6455177293153829  0.8076529625777764  0.1877654491322250
  0.3537492742417438  0.1935899703877801  0.8112895561678850
  0.6466327404959027  0.8088248776059175  0.8116366597394383
  0.3537959956711260  0.1901165995245923  0.1873082833099038
  0.1925288875662341  0.3546495626510370  0.8113992831303416
  0.8066960516877544  0.6466234609923008  0.1877062665350615
  0.1930954127499410  0.3515011230470651  0.1870437687527784
  0.8075983028402260  0.6477088186417120  0.8119690021965019
  0.3520524900911916  0.8086933370191653  0.8117482576844044
  0.6457387464319901  0.1933974735281988  0.1899907984246246
  0.3527611094995746  0.8067807119765743  0.1871104830090982
  0.6490360486806311  0.1910485812501032  0.8145259129590089
  0.4160557765393317  0.5843343795697459  0.9532873347445958
  0.5840933993730073  0.4158124045502174  0.9492010750462997
  0.4208581444188004  0.4200854537506195  0.0391549615056678
  0.5749763162003261  0.5747321724534925  0.0263974853053587
  0.9265034182882564  0.0736323839514949  0.4855298835419662
  0.0723123067152626  0.9273252135534048  0.5059723980315987
  0.9126862890169679  0.9121770761700717  0.5507728593281530
  0.0881186047365882  0.0873904161419392  0.4488816300729120
  0.3863142899913307  0.0676618714904733 -0.0007182794491960
  0.6134380411796516  0.9320852295782830  0.9988214247466761
  0.0674583605449042  0.6136057655251220  0.0004694251400587
  0.9327083415464458  0.3860059007118393  0.9985285000444336
  0.0668253788073415  0.3855887626006353  0.0002270749935308
  0.9334923764205244  0.6141061373027955  0.9987852332992696
  0.3855480021089306  0.9335344124724398 -0.0002855667842713
  0.6144103439914326  0.0662778004902090  0.9989962378895928
  0.1137201443190216  0.5674470065101657  0.5023083842127494
  0.8862120759357176  0.4327093758850287  0.4960699569055003
  0.4325540479909079  0.1135489387416083  0.4985610427412425
  0.5675389423581851  0.8860457920992076  0.5030156451626887
  0.4336117710604107  0.8854332353475138  0.4988315861388968
  0.5665931455395022  0.1141439729822136  0.5029368227479341
  0.1141122660059394  0.4334187457092530  0.4962307106347725
  0.8857170870574018  0.5667385988451646  0.5020388169907039
  0.3162516299352520  0.0591630148051517  0.4971821340612463
  0.6842003153886824  0.9408789004314576  0.5031604450406366
  0.0590808319404094  0.6842256872133061  0.5064376221197626
  0.9408431569023419  0.3158405280021159  0.4928110336728426
  0.0601146188017700  0.3161120091852043  0.4936846014485805
  0.9398303084955675  0.6840471550522890  0.5044286409245575
  0.3159109493704479  0.9398017906355685  0.4970317911340977
  0.6839518352809294  0.0602597162378371  0.5045757307989238
  0.1843391890232174  0.5591005096339815  0.0011798282778599
  0.8159107364157370  0.4405503647931150  0.9970031850452505
  0.4410895766828432  0.1842298170143372  0.9975250161830769
  0.5586823978904315  0.8155461478535740  0.9962103421826295
  0.4394703332395023  0.8157058008411420 -0.0017149451597729
  0.5604405389670427  0.1840638109663082  0.9997501867674926
  0.1842815616568687  0.4397052231232599  0.0002942262146798
  0.8159911224466211  0.5599109846864532  0.9976224508466405
  0.6976613722319975  0.5001819008326293  0.9307542594907038
  0.3008660727336177  0.4979553704956090  0.0694021761934936
  0.6997457287624217  0.5006267246631381  0.0672992777252001
  0.3024167555133779  0.5010600125500465  0.9327026147144417
  0.5024177012019729  0.3011888064833212  0.9301533076905777
  0.5003652723659563  0.7017623636628432  0.0690730631874770
  0.4990607330044370  0.3019528848960045  0.0666841072299022
  0.4982694558023028  0.6945320492815336  0.9327665434911716
  0.0016669416392988  0.1913082539029166  0.4332102115789901
  0.9981555347736629  0.8081410787559444  0.5662159312683820
 -0.0004199842212023  0.2062034573684144  0.5687460843930269
  0.0011625832397701  0.7947046096702410  0.4304761572929673
  0.7979156851431616  0.0021987035651435  0.4311377624302870
  0.2028952051704120  0.9989535132173742  0.5698914716876972
  0.8047896246906443  0.9986734183559476  0.5673265911283427
  0.1947059287596249  0.0010803974758623  0.4337146848946526
  0.2337169627462465  0.1480718231278612  0.4228519230372893
  0.7673078379350191  0.8515081398870603  0.5763118904265119
  0.2256264847252993  0.1418904318851625  0.5847167029112803
  0.7737409180893978  0.8594406279392113  0.4144502507383279
  0.1477828679162552  0.7709078983872870  0.4231503882061040
  0.8534393713346303  0.2290319384322149  0.5781345114290788
  0.1422285632605644  0.7698729738997170  0.5838862619783889
  0.8575713019222254  0.2297079711108100  0.4163449877012688
  0.1414035687764982  0.2253820855555311  0.5845113921045625
  0.8569674863880690  0.7750179785467360  0.4157721850121925
  0.1492822955769967  0.2325453779068750  0.4223152268869062
  0.8527725656440354  0.7680341663370206  0.5782114521892326
  0.2281990051714145  0.8522575007474912  0.5793814903691652
  0.7708896606418449  0.1480747064709540  0.4218576621092697
  0.2303276579812962  0.8566154316608491  0.4183571250131700
  0.7710402383630314  0.1434701773159874  0.5831212161125098
  0.2714887638797786  0.6416604430040846  0.0844653614159980
  0.7340094861287757  0.3517886837838757  0.9218598899246729
  0.2693153765711414  0.6468438725332240  0.9220690412739475
  0.7247356572124710  0.3589641965709607  0.0831531384786735
  0.3540544792263588  0.2671851321471144  0.0781462108854164
  0.6429189088499022  0.7281807523798557  0.9174500810943980
  0.3573299790955820  0.2747077787214590  0.9163646761050552
  0.6461232562172424  0.7307416875377563  0.0788516470919509
  0.3536650021433095  0.7313141123620421  0.9204987625797150
  0.6407008961334120  0.2753319390379041  0.0844477249728193
  0.3557050417071952  0.7251670783876309  0.0827784742623773
  0.6501732997874264  0.2668391078496939  0.9231447272147981
  0.2729774825232262  0.3582088311882963  0.9165648951116949
  0.7300903232675280  0.6462176095943734  0.0795958588864387
  0.2695500672038522  0.3513125160818600  0.0783667540110150
  0.7277687813187584  0.6450926557784156  0.9183044253427500
  0.1093139954747665  0.1086727780686792  0.4931782678915332
  0.8914668135056433  0.8919240313439459  0.5059205909389104
  0.1088385996089214  0.8910944413910173  0.4999939147789587
  0.8913934613642317  0.1089123693448293  0.5005861797319155
  0.3917772867716786  0.6077818401817043 -0.0051085760918507
  0.6087871366429377  0.3915990494426000  0.9897563257583438
  0.3925097178368244  0.3919463305084930  0.0046018251461085
  0.6081812058020396  0.6081671140222789  0.0033737007726930
  0.7908795171418096  0.0722982599753289  0.5001419863047674
  0.2090188723764017  0.9281459910526678  0.5016087613538869
  0.9279779162300512  0.7906672220994405  0.4983838567486857
  0.0723868918131004  0.2096380141091616  0.5001752629252552
  0.9288150172595742  0.2090257147220457  0.4998991951747698
  0.0714467237117148  0.7909728028589795  0.5001478084176043
  0.7906574959095781  0.9287891998634624  0.4993310147607473
  0.2097704074014367  0.0716190920228755  0.5008608043200241
  0.2911027304959840  0.5710471129582033  0.0006045377847886
  0.7091926014964929  0.4288211505649581  0.9977182918290342
  0.4290400498724866  0.2909868039558814  0.9984846853483370
  0.5708997451581019  0.7087494384111390  0.9997547526767456
  0.4275870901949011  0.7090988133587758  0.0007634454166937
  0.5723899853696589  0.2908211880035903  0.9987345132697343
  0.2912004188464781  0.4277024683863839  0.0012676186194715
  0.7092262257973364  0.5722401566052279  0.0002449894924130
 
  0.00000000E+00  0.00000000E+00  0.00000000E+00
  0.00000000E+00  0.00000000E+00  0.00000000E+00
  0.00000000E+00  0.00000000E+00  0.00000000E+00
  0.00000000E+00  0.00000000E+00  0.00000000E+00
  0.00000000E+00  0.00000000E+00  0.00000000E+00
  0.00000000E+00  0.00000000E+00  0.00000000E+00
  0.00000000E+00  0.00000000E+00  0.00000000E+00
  0.00000000E+00  0.00000000E+00  0.00000000E+00
  0.00000000E+00  0.00000000E+00  0.00000000E+00
  0.00000000E+00  0.00000000E+00  0.00000000E+00
  0.00000000E+00  0.00000000E+00  0.00000000E+00
  0.00000000E+00  0.00000000E+00  0.00000000E+00
  0.00000000E+00  0.00000000E+00  0.00000000E+00
  0.00000000E+00  0.00000000E+00  0.00000000E+00
  0.00000000E+00  0.00000000E+00  0.00000000E+00
  0.00000000E+00  0.00000000E+00  0.00000000E+00
  0.00000000E+00  0.00000000E+00  0.00000000E+00
  0.00000000E+00  0.00000000E+00  0.00000000E+00
  0.00000000E+00  0.00000000E+00  0.00000000E+00
  0.00000000E+00  0.00000000E+00  0.00000000E+00
  0.00000000E+00  0.00000000E+00  0.00000000E+00
  0.00000000E+00  0.00000000E+00  0.00000000E+00
  0.00000000E+00  0.00000000E+00  0.00000000E+00
  0.00000000E+00  0.00000000E+00  0.00000000E+00
  0.00000000E+00  0.00000000E+00  0.00000000E+00
  0.00000000E+00  0.00000000E+00  0.00000000E+00
  0.00000000E+00  0.00000000E+00  0.00000000E+00
  0.00000000E+00  0.00000000E+00  0.00000000E+00
  0.00000000E+00  0.00000000E+00  0.00000000E+00
  0.00000000E+00  0.00000000E+00  0.00000000E+00
  0.00000000E+00  0.00000000E+00  0.00000000E+00
  0.00000000E+00  0.00000000E+00  0.00000000E+00
  0.00000000E+00  0.00000000E+00  0.00000000E+00
  0.00000000E+00  0.00000000E+00  0.00000000E+00
  0.00000000E+00  0.00000000E+00  0.00000000E+00
  0.00000000E+00  0.00000000E+00  0.00000000E+00
  0.00000000E+00  0.00000000E+00  0.00000000E+00
  0.00000000E+00  0.00000000E+00  0.00000000E+00
  0.00000000E+00  0.00000000E+00  0.00000000E+00
  0.00000000E+00  0.00000000E+00  0.00000000E+00
  0.00000000E+00  0.00000000E+00  0.00000000E+00
  0.00000000E+00  0.00000000E+00  0.00000000E+00
  0.00000000E+00  0.00000000E+00  0.00000000E+00
  0.00000000E+00  0.00000000E+00  0.00000000E+00
  0.00000000E+00  0.00000000E+00  0.00000000E+00
  0.00000000E+00  0.00000000E+00  0.00000000E+00
  0.00000000E+00  0.00000000E+00  0.00000000E+00
  0.00000000E+00  0.00000000E+00  0.00000000E+00
  0.00000000E+00  0.00000000E+00  0.00000000E+00
  0.00000000E+00  0.00000000E+00  0.00000000E+00
  0.00000000E+00  0.00000000E+00  0.00000000E+00
  0.00000000E+00  0.00000000E+00  0.00000000E+00
  0.00000000E+00  0.00000000E+00  0.00000000E+00
  0.00000000E+00  0.00000000E+00  0.00000000E+00
  0.00000000E+00  0.00000000E+00  0.00000000E+00
  0.00000000E+00  0.00000000E+00  0.00000000E+00
  0.00000000E+00  0.00000000E+00  0.00000000E+00
  0.00000000E+00  0.00000000E+00  0.00000000E+00
  0.00000000E+00  0.00000000E+00  0.00000000E+00
  0.00000000E+00  0.00000000E+00  0.00000000E+00
  0.00000000E+00  0.00000000E+00  0.00000000E+00
  0.00000000E+00  0.00000000E+00  0.00000000E+00
  0.00000000E+00  0.00000000E+00  0.00000000E+00
  0.00000000E+00  0.00000000E+00  0.00000000E+00
  0.00000000E+00  0.00000000E+00  0.00000000E+00
  0.00000000E+00  0.00000000E+00  0.00000000E+00
  0.00000000E+00  0.00000000E+00  0.00000000E+00
  0.00000000E+00  0.00000000E+00  0.00000000E+00
  0.00000000E+00  0.00000000E+00  0.00000000E+00
  0.00000000E+00  0.00000000E+00  0.00000000E+00
  0.00000000E+00  0.00000000E+00  0.00000000E+00
  0.00000000E+00  0.00000000E+00  0.00000000E+00
  0.00000000E+00  0.00000000E+00  0.00000000E+00
  0.00000000E+00  0.00000000E+00  0.00000000E+00
  0.00000000E+00  0.00000000E+00  0.00000000E+00
  0.00000000E+00  0.00000000E+00  0.00000000E+00
  0.00000000E+00  0.00000000E+00  0.00000000E+00
  0.00000000E+00  0.00000000E+00  0.00000000E+00
  0.00000000E+00  0.00000000E+00  0.00000000E+00
  0.00000000E+00  0.00000000E+00  0.00000000E+00
  0.00000000E+00  0.00000000E+00  0.00000000E+00
  0.00000000E+00  0.00000000E+00  0.00000000E+00
  0.00000000E+00  0.00000000E+00  0.00000000E+00
  0.00000000E+00  0.00000000E+00  0.00000000E+00
  0.00000000E+00  0.00000000E+00  0.00000000E+00
  0.00000000E+00  0.00000000E+00  0.00000000E+00
  0.00000000E+00  0.00000000E+00  0.00000000E+00
  0.00000000E+00  0.00000000E+00  0.00000000E+00
  0.00000000E+00  0.00000000E+00  0.00000000E+00
  0.00000000E+00  0.00000000E+00  0.00000000E+00
  0.00000000E+00  0.00000000E+00  0.00000000E+00
  0.00000000E+00  0.00000000E+00  0.00000000E+00
  0.00000000E+00  0.00000000E+00  0.00000000E+00
  0.00000000E+00  0.00000000E+00  0.00000000E+00
  0.00000000E+00  0.00000000E+00  0.00000000E+00
  0.00000000E+00  0.00000000E+00  0.00000000E+00
  0.00000000E+00  0.00000000E+00  0.00000000E+00
  0.00000000E+00  0.00000000E+00  0.00000000E+00
  0.00000000E+00  0.00000000E+00  0.00000000E+00
  0.00000000E+00  0.00000000E+00  0.00000000E+00
  0.00000000E+00  0.00000000E+00  0.00000000E+00
  0.00000000E+00  0.00000000E+00  0.00000000E+00
  0.00000000E+00  0.00000000E+00  0.00000000E+00
  0.00000000E+00  0.00000000E+00  0.00000000E+00
  0.00000000E+00  0.00000000E+00  0.00000000E+00
  0.00000000E+00  0.00000000E+00  0.00000000E+00
  0.00000000E+00  0.00000000E+00  0.00000000E+00
  0.00000000E+00  0.00000000E+00  0.00000000E+00
  0.00000000E+00  0.00000000E+00  0.00000000E+00
  0.00000000E+00  0.00000000E+00  0.00000000E+00
  0.00000000E+00  0.00000000E+00  0.00000000E+00
  0.00000000E+00  0.00000000E+00  0.00000000E+00
  0.00000000E+00  0.00000000E+00  0.00000000E+00
  0.00000000E+00  0.00000000E+00  0.00000000E+00
  0.00000000E+00  0.00000000E+00  0.00000000E+00
  0.00000000E+00  0.00000000E+00  0.00000000E+00
  0.00000000E+00  0.00000000E+00  0.00000000E+00
  0.00000000E+00  0.00000000E+00  0.00000000E+00
  0.00000000E+00  0.00000000E+00  0.00000000E+00
  0.00000000E+00  0.00000000E+00  0.00000000E+00
  0.00000000E+00  0.00000000E+00  0.00000000E+00
  0.00000000E+00  0.00000000E+00  0.00000000E+00
  0.00000000E+00  0.00000000E+00  0.00000000E+00
  0.00000000E+00  0.00000000E+00  0.00000000E+00
  0.00000000E+00  0.00000000E+00  0.00000000E+00
  0.00000000E+00  0.00000000E+00  0.00000000E+00
  0.00000000E+00  0.00000000E+00  0.00000000E+00
  0.00000000E+00  0.00000000E+00  0.00000000E+00
  0.00000000E+00  0.00000000E+00  0.00000000E+00
  0.00000000E+00  0.00000000E+00  0.00000000E+00
  0.00000000E+00  0.00000000E+00  0.00000000E+00
  0.00000000E+00  0.00000000E+00  0.00000000E+00
  0.00000000E+00  0.00000000E+00  0.00000000E+00
  0.00000000E+00  0.00000000E+00  0.00000000E+00
  0.00000000E+00  0.00000000E+00  0.00000000E+00
  0.00000000E+00  0.00000000E+00  0.00000000E+00
  0.00000000E+00  0.00000000E+00  0.00000000E+00
  0.00000000E+00  0.00000000E+00  0.00000000E+00
  0.00000000E+00  0.00000000E+00  0.00000000E+00
  0.00000000E+00  0.00000000E+00  0.00000000E+00
  0.00000000E+00  0.00000000E+00  0.00000000E+00
  0.00000000E+00  0.00000000E+00  0.00000000E+00
  0.00000000E+00  0.00000000E+00  0.00000000E+00
  0.00000000E+00  0.00000000E+00  0.00000000E+00
  0.00000000E+00  0.00000000E+00  0.00000000E+00
  0.00000000E+00  0.00000000E+00  0.00000000E+00
  0.00000000E+00  0.00000000E+00  0.00000000E+00
  0.00000000E+00  0.00000000E+00  0.00000000E+00
  0.00000000E+00  0.00000000E+00  0.00000000E+00
  0.00000000E+00  0.00000000E+00  0.00000000E+00
  0.00000000E+00  0.00000000E+00  0.00000000E+00
  0.00000000E+00  0.00000000E+00  0.00000000E+00
  0.00000000E+00  0.00000000E+00  0.00000000E+00
  0.00000000E+00  0.00000000E+00  0.00000000E+00
  0.00000000E+00  0.00000000E+00  0.00000000E+00
  0.00000000E+00  0.00000000E+00  0.00000000E+00
  0.00000000E+00  0.00000000E+00  0.00000000E+00
  0.00000000E+00  0.00000000E+00  0.00000000E+00
  0.00000000E+00  0.00000000E+00  0.00000000E+00
  0.00000000E+00  0.00000000E+00  0.00000000E+00
  0.00000000E+00  0.00000000E+00  0.00000000E+00
  0.00000000E+00  0.00000000E+00  0.00000000E+00
  0.00000000E+00  0.00000000E+00  0.00000000E+00
  0.00000000E+00  0.00000000E+00  0.00000000E+00
  0.00000000E+00  0.00000000E+00  0.00000000E+00
  0.00000000E+00  0.00000000E+00  0.00000000E+00
  0.00000000E+00  0.00000000E+00  0.00000000E+00
  0.00000000E+00  0.00000000E+00  0.00000000E+00
  0.00000000E+00  0.00000000E+00  0.00000000E+00
  0.00000000E+00  0.00000000E+00  0.00000000E+00
  0.00000000E+00  0.00000000E+00  0.00000000E+00
  0.00000000E+00  0.00000000E+00  0.00000000E+00
  0.00000000E+00  0.00000000E+00  0.00000000E+00
  0.00000000E+00  0.00000000E+00  0.00000000E+00
  0.00000000E+00  0.00000000E+00  0.00000000E+00
  0.00000000E+00  0.00000000E+00  0.00000000E+00
  0.00000000E+00  0.00000000E+00  0.00000000E+00
  0.00000000E+00  0.00000000E+00  0.00000000E+00
  0.00000000E+00  0.00000000E+00  0.00000000E+00
  0.00000000E+00  0.00000000E+00  0.00000000E+00
  0.00000000E+00  0.00000000E+00  0.00000000E+00
  0.00000000E+00  0.00000000E+00  0.00000000E+00
  0.00000000E+00  0.00000000E+00  0.00000000E+00
  0.00000000E+00  0.00000000E+00  0.00000000E+00
  0.00000000E+00  0.00000000E+00  0.00000000E+00
  0.00000000E+00  0.00000000E+00  0.00000000E+00
  0.00000000E+00  0.00000000E+00  0.00000000E+00
  0.00000000E+00  0.00000000E+00  0.00000000E+00
  0.00000000E+00  0.00000000E+00  0.00000000E+00
  0.00000000E+00  0.00000000E+00  0.00000000E+00
  0.00000000E+00  0.00000000E+00  0.00000000E+00
  0.00000000E+00  0.00000000E+00  0.00000000E+00
  0.00000000E+00  0.00000000E+00  0.00000000E+00
  0.00000000E+00  0.00000000E+00  0.00000000E+00
  0.00000000E+00  0.00000000E+00  0.00000000E+00
  0.00000000E+00  0.00000000E+00  0.00000000E+00
  0.00000000E+00  0.00000000E+00  0.00000000E+00
  0.00000000E+00  0.00000000E+00  0.00000000E+00
  0.00000000E+00  0.00000000E+00  0.00000000E+00
  0.00000000E+00  0.00000000E+00  0.00000000E+00
  0.00000000E+00  0.00000000E+00  0.00000000E+00
  0.00000000E+00  0.00000000E+00  0.00000000E+00
  0.00000000E+00  0.00000000E+00  0.00000000E+00
  0.00000000E+00  0.00000000E+00  0.00000000E+00
  0.00000000E+00  0.00000000E+00  0.00000000E+00
  0.00000000E+00  0.00000000E+00  0.00000000E+00
  0.00000000E+00  0.00000000E+00  0.00000000E+00
  0.00000000E+00  0.00000000E+00  0.00000000E+00
  0.00000000E+00  0.00000000E+00  0.00000000E+00
  0.00000000E+00  0.00000000E+00  0.00000000E+00
  0.00000000E+00  0.00000000E+00  0.00000000E+00
  0.00000000E+00  0.00000000E+00  0.00000000E+00
  0.00000000E+00  0.00000000E+00  0.00000000E+00
  0.00000000E+00  0.00000000E+00  0.00000000E+00
  0.00000000E+00  0.00000000E+00  0.00000000E+00
  0.00000000E+00  0.00000000E+00  0.00000000E+00
  0.00000000E+00  0.00000000E+00  0.00000000E+00
  0.00000000E+00  0.00000000E+00  0.00000000E+00
  0.00000000E+00  0.00000000E+00  0.00000000E+00
  0.00000000E+00  0.00000000E+00  0.00000000E+00
  0.00000000E+00  0.00000000E+00  0.00000000E+00
  0.00000000E+00  0.00000000E+00  0.00000000E+00
  0.00000000E+00  0.00000000E+00  0.00000000E+00
  0.00000000E+00  0.00000000E+00  0.00000000E+00
  0.00000000E+00  0.00000000E+00  0.00000000E+00
  0.00000000E+00  0.00000000E+00  0.00000000E+00
  0.00000000E+00  0.00000000E+00  0.00000000E+00
  0.00000000E+00  0.00000000E+00  0.00000000E+00
  0.00000000E+00  0.00000000E+00  0.00000000E+00
  0.00000000E+00  0.00000000E+00  0.00000000E+00
  0.00000000E+00  0.00000000E+00  0.00000000E+00
  0.00000000E+00  0.00000000E+00  0.00000000E+00
  0.00000000E+00  0.00000000E+00  0.00000000E+00
  0.00000000E+00  0.00000000E+00  0.00000000E+00
  0.00000000E+00  0.00000000E+00  0.00000000E+00
  0.00000000E+00  0.00000000E+00  0.00000000E+00
  0.00000000E+00  0.00000000E+00  0.00000000E+00
  0.00000000E+00  0.00000000E+00  0.00000000E+00
  0.00000000E+00  0.00000000E+00  0.00000000E+00
  0.00000000E+00  0.00000000E+00  0.00000000E+00
