# 
# Keywords:
# 
opti fix prop conv molmec phon comp  
# 
# Options:
# 
name mil-125                                                                    
cell
  18.858015  18.858012  18.042834  89.844803  90.153688  89.998624
fractional  1   
C913  core 0.3478810 0.9993543 0.4975248 1.17050000 1.00000 0.00000             
C913  core 0.6501749 0.9993620 0.4967193 1.17050000 1.00000 0.00000             
C913  core 0.9990410 0.6505147 0.4975269 1.17050000 1.00000 0.00000             
C913  core 0.9990332 0.3482206 0.4967189 1.17050000 1.00000 0.00000             
C913  core 0.4990444 0.8482287 0.9956235 1.17050000 1.00000 0.00000             
C913  core 0.4990640 0.1505099 0.9966580 1.17050000 1.00000 0.00000             
C913  core 0.1501665 0.4993507 0.9956279 1.17050000 1.00000 0.00000             
C913  core 0.8478852 0.4993310 0.9966536 1.17050000 1.00000 0.00000             
C902  core 0.9267876 0.4993346 0.9963507 -0.1150000 1.00000 0.00000             
C902  core 0.0712640 0.4993439 0.9958605 -0.1150000 1.00000 0.00000             
C902  core 0.4990605 0.0716076 0.9963529 -0.1150000 1.00000 0.00000             
C902  core 0.4990512 0.9271312 0.9958583 -0.1150000 1.00000 0.00000             
C902  core 0.9990315 0.4271267 0.4968447 -0.1150000 1.00000 0.00000             
C902  core 0.9990358 0.5716094 0.4972439 -0.1150000 1.00000 0.00000             
C902  core 0.5712689 0.9993638 0.4968452 -0.1150000 1.00000 0.00000             
C902  core 0.4267862 0.9993596 0.4972427 -0.1150000 1.00000 0.00000             
C912  core 0.9625265 0.5629346 0.9968761 -0.0102500 1.00000 0.00000             
C912  core 0.0355248 0.4357448 0.9952425 -0.0102500 1.00000 0.00000             
C912  core 0.5626559 0.0358661 0.9955652 -0.0102500 1.00000 0.00000             
C912  core 0.4354566 0.9628723 0.9966958 -0.0102500 1.00000 0.00000             
C912  core 0.5626503 0.9628704 0.9952432 -0.0102500 1.00000 0.00000             
C912  core 0.4354605 0.0358686 0.9968754 -0.0102500 1.00000 0.00000             
C912  core 0.9625291 0.4357392 0.9955623 -0.0102500 1.00000 0.00000             
C912  core 0.0355228 0.5629384 0.9966988 -0.0102500 1.00000 0.00000             
C912  core 0.5355244 0.0629636 0.4971713 -0.0102500 1.00000 0.00000             
C912  core 0.4625307 0.9357602 0.4969084 -0.0102500 1.00000 0.00000             
C912  core 0.9354337 0.5358688 0.4973288 -0.0102500 1.00000 0.00000             
C912  core 0.0626327 0.4628681 0.4966689 -0.0102500 1.00000 0.00000             
C912  core 0.9354317 0.4628713 0.4971643 -0.0102500 1.00000 0.00000             
C912  core 0.0626352 0.5358649 0.4969157 -0.0102500 1.00000 0.00000             
C912  core 0.5355274 0.9357627 0.4966626 -0.0102500 1.00000 0.00000             
C912  core 0.4625269 0.0629616 0.4973347 -0.0102500 1.00000 0.00000             
C902  core 0.2264315 0.2265965 0.3121925 -0.1150000 1.00000 0.00000             
C902  core 0.7716036 0.7721092 0.6773722 -0.1150000 1.00000 0.00000             
C902  core 0.2262825 0.2267880 0.6773829 -0.1150000 1.00000 0.00000             
C902  core 0.7718032 0.7719682 0.3121808 -0.1150000 1.00000 0.00000             
C902  core 0.2267018 0.7716951 0.3132915 -0.1150000 1.00000 0.00000             
C902  core 0.7718914 0.2265023 0.6773334 -0.1150000 1.00000 0.00000             
C902  core 0.2260013 0.7723925 0.6785089 -0.1150000 1.00000 0.00000             
C902  core 0.7714815 0.2269155 0.3121727 -0.1150000 1.00000 0.00000             
C902  core 0.2709588 0.7274354 0.8138825 -0.1150000 1.00000 0.00000             
C902  core 0.7264139 0.2719823 0.1769156 -0.1150000 1.00000 0.00000             
C902  core 0.2723901 0.7260061 0.1789931 -0.1150000 1.00000 0.00000             
C902  core 0.7262726 0.2721217 0.8117109 -0.1150000 1.00000 0.00000             
C902  core 0.2716180 0.2722504 0.8121419 -0.1150000 1.00000 0.00000             
C902  core 0.7265918 0.7266416 0.1772878 -0.1150000 1.00000 0.00000             
C902  core 0.2717550 0.2718048 0.1772947 -0.1150000 1.00000 0.00000             
C902  core 0.7261440 0.7267763 0.8121354 -0.1150000 1.00000 0.00000             
C913  core 0.7007198 0.7014429 0.8852360 1.17050000 1.00000 0.00000             
C913  core 0.2970661 0.2970172 0.1040925 1.17050000 1.00000 0.00000             
C913  core 0.7013774 0.7013285 0.1040884 1.17050000 1.00000 0.00000             
C913  core 0.2969531 0.2976762 0.8852399 1.17050000 1.00000 0.00000             
C913  core 0.7007707 0.2976242 0.8845908 1.17050000 1.00000 0.00000             
C913  core 0.2978040 0.7005913 0.1060624 1.17050000 1.00000 0.00000             
C913  core 0.7012634 0.2971319 0.1035064 1.17050000 1.00000 0.00000             
C913  core 0.2961746 0.7022204 0.8872645 1.17050000 1.00000 0.00000             
C913  core 0.7967278 0.2016696 0.3855136 1.17050000 1.00000 0.00000             
C913  core 0.2009481 0.7974455 0.6050056 1.17050000 1.00000 0.00000             
C913  core 0.7973028 0.2010908 0.6043880 1.17050000 1.00000 0.00000             
C913  core 0.2011193 0.7972780 0.3860913 1.17050000 1.00000 0.00000             
C913  core 0.7970523 0.7973636 0.3853403 1.17050000 1.00000 0.00000             
C913  core 0.2010344 0.2013871 0.6042480 1.17050000 1.00000 0.00000             
C913  core 0.7970036 0.7973565 0.6042354 1.17050000 1.00000 0.00000             
C913  core 0.2010370 0.2013483 0.3853541 1.17050000 1.00000 0.00000             
C912  core 0.1923217 0.2825148 0.2783614 -0.0102500 1.00000 0.00000             
C912  core 0.8057064 0.7161848 0.7111744 -0.0102500 1.00000 0.00000             
C912  core 0.1928400 0.2834427 0.7100557 -0.0102500 1.00000 0.00000             
C912  core 0.8052634 0.7153367 0.2794602 -0.0102500 1.00000 0.00000             
C912  core 0.2830955 0.8053673 0.2801815 -0.0102500 1.00000 0.00000             
C912  core 0.7155568 0.1927803 0.7104888 -0.0102500 1.00000 0.00000             
C912  core 0.2821686 0.8062819 0.7119159 -0.0102500 1.00000 0.00000             
C912  core 0.7152453 0.1930836 0.2788207 -0.0102500 1.00000 0.00000             
C912  core 0.2822074 0.1926857 0.7111844 -0.0102500 1.00000 0.00000             
C912  core 0.7158843 0.8060775 0.2783507 -0.0102500 1.00000 0.00000             
C912  core 0.2830624 0.1931357 0.2794708 -0.0102500 1.00000 0.00000             
C912  core 0.7149493 0.8055521 0.7100458 -0.0102500 1.00000 0.00000             
C912  core 0.1921086 0.7162288 0.7119213 -0.0102500 1.00000 0.00000             
C912  core 0.8053164 0.2831482 0.2788152 -0.0102500 1.00000 0.00000             
C912  core 0.1930326 0.7152981 0.2801870 -0.0102500 1.00000 0.00000             
C912  core 0.8056102 0.2828405 0.7104833 -0.0102500 1.00000 0.00000             
C912  core 0.3061101 0.7823508 0.2121356 -0.0102500 1.00000 0.00000             
C912  core 0.6925768 0.2157559 0.7785682 -0.0102500 1.00000 0.00000             
C912  core 0.3048029 0.7836491 0.7805044 -0.0102500 1.00000 0.00000             
C912  core 0.6925547 0.2157785 0.2102815 -0.0102500 1.00000 0.00000             
C912  core 0.2151086 0.3052435 0.2099924 -0.0102500 1.00000 0.00000             
C912  core 0.7828505 0.6933856 0.7794867 -0.0102500 1.00000 0.00000             
C912  core 0.2157119 0.3063777 0.7783139 -0.0102500 1.00000 0.00000             
C912  core 0.7824579 0.6924825 0.2111428 -0.0102500 1.00000 0.00000             
C912  core 0.2147419 0.6935943 0.7805096 -0.0102500 1.00000 0.00000             
C912  core 0.7826209 0.3058388 0.2102762 -0.0102500 1.00000 0.00000             
C912  core 0.2160485 0.6922834 0.2121410 -0.0102500 1.00000 0.00000             
C912  core 0.7826350 0.3058204 0.7785629 -0.0102500 1.00000 0.00000             
C912  core 0.3050079 0.2155430 0.7794944 -0.0102500 1.00000 0.00000             
C912  core 0.6931539 0.7832888 0.2099842 -0.0102500 1.00000 0.00000             
C912  core 0.3059150 0.2159396 0.2111510 -0.0102500 1.00000 0.00000             
C912  core 0.6920158 0.7826817 0.7783063 -0.0102500 1.00000 0.00000             
H915  core 0.8502886 0.6910932 0.6840625 0.11250000 1.00000 0.00000             
H915  core 0.1477386 0.3076338 0.3054445 0.11250000 1.00000 0.00000             
H915  core 0.8492864 0.6896965 0.3073929 0.11250000 1.00000 0.00000             
H915  core 0.1488326 0.3090645 0.6820780 0.11250000 1.00000 0.00000             
H915  core 0.6902337 0.1484463 0.6830324 0.11250000 1.00000 0.00000             
H915  core 0.3083791 0.8497606 0.3075748 0.11250000 1.00000 0.00000             
H915  core 0.6898378 0.1488134 0.3064137 0.11250000 1.00000 0.00000             
H915  core 0.3076273 0.8504825 0.6842554 0.11250000 1.00000 0.00000             
H915  core 0.1486419 0.6900122 0.3075844 0.11250000 1.00000 0.00000             
H915  core 0.8499415 0.3081661 0.6830228 0.11250000 1.00000 0.00000             
H915  core 0.1479053 0.6907725 0.6842648 0.11250000 1.00000 0.00000             
H915  core 0.8495891 0.3085534 0.3064041 0.11250000 1.00000 0.00000             
H915  core 0.3087032 0.1491132 0.3074045 0.11250000 1.00000 0.00000             
H915  core 0.6893271 0.8495590 0.6820671 0.11250000 1.00000 0.00000             
H915  core 0.3072986 0.1481030 0.6840734 0.11250000 1.00000 0.00000             
H915  core 0.6907658 0.8506611 0.3054329 0.11250000 1.00000 0.00000             
H915  core 0.8080460 0.3500669 0.1826284 0.11250000 1.00000 0.00000             
H915  core 0.1893150 0.6493563 0.8081377 0.11250000 1.00000 0.00000             
H915  core 0.8079432 0.3501945 0.8059642 0.11250000 1.00000 0.00000             
H915  core 0.1907337 0.6479264 0.1847159 0.11250000 1.00000 0.00000             
H915  core 0.6491708 0.8089461 0.1819992 0.11250000 1.00000 0.00000             
H915  core 0.3490376 0.1899176 0.8074308 0.11250000 1.00000 0.00000             
H915  core 0.6473932 0.8077546 0.8053636 0.11250000 1.00000 0.00000             
H915  core 0.3504759 0.1908231 0.1840267 0.11250000 1.00000 0.00000             
H915  core 0.1906394 0.3510008 0.8053703 0.11250000 1.00000 0.00000             
H915  core 0.8075737 0.6479209 0.1840196 0.11250000 1.00000 0.00000             
H915  core 0.1894507 0.3492260 0.1820064 0.11250000 1.00000 0.00000             
H915  core 0.8084765 0.6493566 0.8074241 0.11250000 1.00000 0.00000             
H915  core 0.3490434 0.8090735 0.8081286 0.11250000 1.00000 0.00000             
H915  core 0.6483241 0.1903556 0.1826378 0.11250000 1.00000 0.00000             
H915  core 0.3504647 0.8076677 0.1847065 0.11250000 1.00000 0.00000             
H915  core 0.6482053 0.1904453 0.8059735 0.11250000 1.00000 0.00000             
H21   core 0.4031895 0.5952054 0.9813203 0.15000000 1.00000 0.00000             
H21   core 0.5963863 0.4020090 0.0157080 0.15000000 1.00000 0.00000             
H21   core 0.4025291 0.4026310 0.0136868 0.15000000 1.00000 0.00000             
H21   core 0.5957624 0.5958644 0.0136794 0.15000000 1.00000 0.00000             
H21   core 0.9021832 0.0962120 0.5148811 0.15000000 1.00000 0.00000             
H21   core 0.0962429 0.9021524 0.5160903 0.15000000 1.00000 0.00000             
H21   core 0.9018637 0.9022505 0.5157804 0.15000000 1.00000 0.00000             
H21   core 0.0961252 0.0965116 0.5157094 0.15000000 1.00000 0.00000             
H915  core 0.3862951 0.0655512 0.9975027 0.11250000 1.00000 0.00000             
H915  core 0.6118154 0.9331876 0.9946048 0.11250000 1.00000 0.00000             
H915  core 0.0652040 0.6121072 0.9971444 0.11250000 1.00000 0.00000             
H915  core 0.9328483 0.3865700 0.9951553 0.11250000 1.00000 0.00000             
H915  core 0.0652076 0.3865797 0.9946036 0.11250000 1.00000 0.00000             
H915  core 0.9328439 0.6120999 0.9975039 0.11250000 1.00000 0.00000             
H915  core 0.3862878 0.9331911 0.9971392 0.11250000 1.00000 0.00000             
H915  core 0.6118252 0.0655469 0.9951606 0.11250000 1.00000 0.00000             
H915  core 0.1118069 0.5655448 0.4968442 0.11250000 1.00000 0.00000             
H915  core 0.8862600 0.4331917 0.4972754 0.11250000 1.00000 0.00000             
H915  core 0.4328442 0.1121314 0.4975989 0.11250000 1.00000 0.00000             
H915  core 0.5652099 0.8865926 0.4964051 0.11250000 1.00000 0.00000             
H915  core 0.4328508 0.8865885 0.4968315 0.11250000 1.00000 0.00000             
H915  core 0.5652040 0.1121353 0.4972877 0.11250000 1.00000 0.00000             
H915  core 0.1118028 0.4331857 0.4964161 0.11250000 1.00000 0.00000             
H915  core 0.8862639 0.5655515 0.4975883 0.11250000 1.00000 0.00000             
O170  core 0.3153785 0.0581232 0.4978320 -1.1300000 1.00000 0.00000             
O170  core 0.6826690 0.9405887 0.4964518 -1.1300000 1.00000 0.00000             
O170  core 0.0578164 0.6830057 0.4974914 -1.1300000 1.00000 0.00000             
O170  core 0.9402650 0.3157181 0.4969653 -1.1300000 1.00000 0.00000             
O170  core 0.0578064 0.3157262 0.4964577 -1.1300000 1.00000 0.00000             
O170  core 0.9402719 0.6830168 0.4978279 -1.1300000 1.00000 0.00000             
O170  core 0.3153901 0.9405787 0.4974831 -1.1300000 1.00000 0.00000             
O170  core 0.6826776 0.0581301 0.4969717 -1.1300000 1.00000 0.00000             
O170  core 0.1826615 0.5581187 0.9962615 -1.1300000 1.00000 0.00000             
O170  core 0.8153861 0.4405628 0.9962292 -1.1300000 1.00000 0.00000             
O170  core 0.4402962 0.1830051 0.9973690 -1.1300000 1.00000 0.00000             
O170  core 0.5578054 0.8157258 0.9948213 -1.1300000 1.00000 0.00000             
O170  core 0.4402764 0.8157336 0.9962545 -1.1300000 1.00000 0.00000             
O170  core 0.5578323 0.1830091 0.9962361 -1.1300000 1.00000 0.00000             
O170  core 0.1826694 0.4405897 0.9948249 -1.1300000 1.00000 0.00000             
O170  core 0.8153900 0.5580988 0.9973656 -1.1300000 1.00000 0.00000             
O171  core 0.6975867 0.4998172 0.9365448 -2.0000000 1.00000 0.00000             
O171  core 0.3031540 0.4987371 0.0528232 -2.0000000 1.00000 0.00000             
O171  core 0.6928532 0.4989444 0.0515234 -2.0000000 1.00000 0.00000             
O171  core 0.3025600 0.5000082 0.9377477 -2.0000000 1.00000 0.00000             
O171  core 0.4985802 0.3008080 0.9365474 -2.0000000 1.00000 0.00000             
O171  core 0.4996560 0.6952417 0.0528206 -2.0000000 1.00000 0.00000             
O171  core 0.4994487 0.3055425 0.0515259 -2.0000000 1.00000 0.00000             
O171  core 0.4983891 0.6958345 0.9377451 -2.0000000 1.00000 0.00000             
O171  core 0.9987227 0.1979552 0.4367183 -2.0000000 1.00000 0.00000             
O171  core 0.9992129 0.8056488 0.5521359 -2.0000000 1.00000 0.00000             
O171  core 0.9993339 0.1931734 0.5517252 -2.0000000 1.00000 0.00000             
O171  core 0.9988516 0.8006938 0.4371607 -2.0000000 1.00000 0.00000             
O171  core 0.8004371 0.9996778 0.4367133 -2.0000000 1.00000 0.00000             
O171  core 0.1927506 0.9991772 0.5521411 -2.0000000 1.00000 0.00000             
O171  core 0.8052249 0.9990561 0.5517200 -2.0000000 1.00000 0.00000             
O171  core 0.1976975 0.9995489 0.4371656 -2.0000000 1.00000 0.00000             
O170  core 0.2298739 0.1494945 0.4173573 -1.1300000 1.00000 0.00000             
O170  core 0.7679321 0.8492136 0.5724012 -1.1300000 1.00000 0.00000             
O170  core 0.2297014 0.1489065 0.5736097 -1.1300000 1.00000 0.00000             
O170  core 0.7686058 0.8498281 0.4161600 -1.1300000 1.00000 0.00000             
O170  core 0.1488602 0.7687341 0.4173444 -1.1300000 1.00000 0.00000             
O170  core 0.8494882 0.2299497 0.5732230 -1.1300000 1.00000 0.00000             
O170  core 0.1488821 0.7684737 0.5736090 -1.1300000 1.00000 0.00000             
O170  core 0.8488750 0.2303165 0.4169946 -1.1300000 1.00000 0.00000             
O170  core 0.1491772 0.2304582 0.5724141 -1.1300000 1.00000 0.00000             
O170  core 0.8489063 0.7685270 0.4173431 -1.1300000 1.00000 0.00000             
O170  core 0.1485726 0.2297952 0.4161742 -1.1300000 1.00000 0.00000             
O170  core 0.8494842 0.7686891 0.5735970 -1.1300000 1.00000 0.00000             
O170  core 0.2299229 0.8495082 0.5736037 -1.1300000 1.00000 0.00000             
O170  core 0.7680783 0.1495255 0.4169999 -1.1300000 1.00000 0.00000             
O170  core 0.2296606 0.8495402 0.4173390 -1.1300000 1.00000 0.00000             
O170  core 0.7684468 0.1489020 0.5732282 -1.1300000 1.00000 0.00000             
O170  core 0.2691105 0.6484504 0.0747307 -1.1300000 1.00000 0.00000             
O170  core 0.7293573 0.3498378 0.9158907 -1.1300000 1.00000 0.00000             
O170  core 0.2673537 0.6500411 0.9185953 -1.1300000 1.00000 0.00000             
O170  core 0.7301867 0.3492484 0.0721602 -1.1300000 1.00000 0.00000             
O170  core 0.3495955 0.2684497 0.0734356 -1.1300000 1.00000 0.00000             
O170  core 0.6481705 0.7297564 0.9160311 -1.1300000 1.00000 0.00000             
O170  core 0.3487422 0.2687154 0.9172303 -1.1300000 1.00000 0.00000             
O170  core 0.6495950 0.7305052 0.0722256 -1.1300000 1.00000 0.00000             
O170  core 0.3483566 0.7310395 0.9185896 -1.1300000 1.00000 0.00000             
O170  core 0.6491443 0.2682103 0.0721658 -1.1300000 1.00000 0.00000             
O170  core 0.3499423 0.7292865 0.0747251 -1.1300000 1.00000 0.00000             
O170  core 0.6485600 0.2690359 0.9158963 -1.1300000 1.00000 0.00000             
O170  core 0.2686402 0.3502261 0.9160339 -1.1300000 1.00000 0.00000             
O170  core 0.7299443 0.6487985 0.0734327 -1.1300000 1.00000 0.00000             
O170  core 0.2678888 0.3487990 0.0722286 -1.1300000 1.00000 0.00000             
O170  core 0.7296812 0.6496544 0.9172275 -1.1300000 1.00000 0.00000             
O75   core 0.1310195 0.1313627 0.4968148 -1.1500000 1.00000 0.00000             
O75   core 0.8670306 0.8673739 0.4968132 -1.1500000 1.00000 0.00000             
O75   core 0.1310367 0.8673588 0.4970667 -1.1500000 1.00000 0.00000             
O75   core 0.8670614 0.1313340 0.4968310 -1.1500000 1.00000 0.00000             
O75   core 0.3671348 0.6312603 0.9942106 -1.1500000 1.00000 0.00000             
O75   core 0.6310343 0.3673609 0.9961154 -1.1500000 1.00000 0.00000             
O75   core 0.3670889 0.3674058 0.9967950 -1.1500000 1.00000 0.00000             
O75   core 0.6309892 0.6313061 0.9967930 -1.1500000 1.00000 0.00000             
Ti1   core 0.7899950 0.0780819 0.4948824 4.00000000 1.00000 0.00000             
Ti1   core 0.2080682 0.9206460 0.4951366 4.00000000 1.00000 0.00000             
Ti1   core 0.9203181 0.7903372 0.4952378 4.00000000 1.00000 0.00000             
Ti1   core 0.0777449 0.2084084 0.4943957 4.00000000 1.00000 0.00000             
Ti1   core 0.9203133 0.2084007 0.4948808 4.00000000 1.00000 0.00000             
Ti1   core 0.0777493 0.7903275 0.4951384 4.00000000 1.00000 0.00000             
Ti1   core 0.7899867 0.9206504 0.4943857 4.00000000 1.00000 0.00000             
Ti1   core 0.2080580 0.0780772 0.4952475 4.00000000 1.00000 0.00000             
Ti1   core 0.2899926 0.5780923 0.9959878 4.00000000 1.00000 0.00000             
Ti1   core 0.7080568 0.4206610 0.9940658 4.00000000 1.00000 0.00000             
Ti1   core 0.4203037 0.2903143 0.9949848 4.00000000 1.00000 0.00000             
Ti1   core 0.5777401 0.7083852 0.9946531 4.00000000 1.00000 0.00000             
Ti1   core 0.4203028 0.7084026 0.9959835 4.00000000 1.00000 0.00000             
Ti1   core 0.5777342 0.2903383 0.9940700 4.00000000 1.00000 0.00000             
Ti1   core 0.2900100 0.4206551 0.9946551 4.00000000 1.00000 0.00000             
Ti1   core 0.7080809 0.5780915 0.9949828 4.00000000 1.00000 0.00000             
space
  1

output frc forceconstants.frc
output shengBTE
