NOTT300_0GPa                            
   1.00000000000000     
    14.8025297417826138    0.0000000000000000    0.0000000000000000
     0.0000000000000000   14.8025297417826138    0.0000000000000000
     0.0000000000000000    0.0000000000000000   11.8531311513602287
   Al   C    H    O 
     8    64    32    40
Direct
  0.1920189798750248  0.8079810052051839  0.0000000000000000
  0.3079810052523564  0.6920189947880730  0.4999999999663345
  0.1920189798750248  0.6920189947880730  0.2500000000252456
  0.3079810052523564  0.8079810052051839  0.7499999999915872
  0.6920189947880730  0.3079810052523564  0.4999999999663345
  0.8079810052051839  0.1920189798750248  0.0000000000000000
  0.6920189947880730  0.1920189798750248  0.7499999999915872
  0.8079810052051839  0.3079810052523564  0.2500000000252456
  0.0929656370654891  0.8582724420012582  0.2015813715486422
  0.4070343778475595  0.6417275579919988  0.7015813566186967
  0.1417275579717837  0.5929656221928700  0.4515813566776082
  0.3582724420484313  0.9070343778677749  0.9515813566439494
  0.4070343778475595  0.8582724420012582  0.5484186433392250
  0.0929656370654891  0.6417275579919988  0.0484186284766033
  0.3582724420484313  0.5929656221928700  0.2984186433139718
  0.1417275579717837  0.9070343778677749  0.7984186433644705
  0.5929656221928700  0.3582724420484313  0.7015813566186967
  0.9070343778677749  0.1417275579717837  0.2015813715486422
  0.6417275579919988  0.0929656370654891  0.9515813566439494
  0.8582724420012582  0.4070343778475595  0.4515813566776082
  0.9070343778677749  0.3582724420484313  0.0484186284766033
  0.5929656221928700  0.1417275579717837  0.5484186433392250
  0.8582724420012582  0.0929656370654891  0.7984186433644705
  0.6417275579919988  0.4070343778475595  0.2984186433139718
  0.0419667611888451  0.9305922260347838  0.2603744229613915
  0.4580332351250156  0.5694077739584803  0.7603744229277332
  0.0694077590454320  0.5419667649154215  0.5103744229866443
  0.4305922260145613  0.9580332350778425  0.0103744229361458
  0.4580332351250156  0.9305922260347838  0.4896255770301886
  0.0419667611888451  0.5694077739584803  0.9896255770806868
  0.4305922260145613  0.5419667649154215  0.2396255770890999
  0.0694077590454320  0.9580332350778425  0.7396255770554412
  0.5419667649154215  0.4305922260145613  0.7603744229277332
  0.9580332350778425  0.0694077590454320  0.2603744229613915
  0.5694077739584803  0.0419667611888451  0.0103744229361458
  0.9305922260347838  0.4580332351250156  0.5103744229866443
  0.9580332350778425  0.4305922260145613  0.9896255770806868
  0.5419667649154215  0.0694077590454320  0.4896255770301886
  0.9305922260347838  0.0419667611888451  0.7396255770554412
  0.5694077739584803  0.4580332351250156  0.2396255770890999
  0.0000000000000000  0.0000000000000000  0.2005646462312780
  0.5000000000202149  0.5000000000202149  0.7005646313013332
  0.0000000000000000  0.5000000000202149  0.4505646313602439
  0.5000000000202149  0.0000000000000000  0.9505646313265859
  0.5000000000202149  0.0000000000000000  0.5494353686565814
  0.0000000000000000  0.5000000000202149  0.0494353537939676
  0.5000000000202149  0.5000000000202149  0.2994353686313362
  0.0000000000000000  0.0000000000000000  0.7994353686818341
  0.0395081180141288  0.9292821454158594  0.3778886078259955
  0.4604918782323368  0.5707178545773975  0.8778886077923306
  0.0707178620372934  0.5395080919550448  0.6278886078512417
  0.4292821453956445  0.9604919080382193  0.1278886078007431
  0.4604918782323368  0.9292821454158594  0.3721113921655916
  0.0395081180141288  0.5707178545773975  0.8721113922160894
  0.4292821453956445  0.5395080919550448  0.1221113922245026
  0.0707178620372934  0.9604919080382193  0.6221113921908367
  0.5395080919550448  0.4292821453956445  0.8778886077923306
  0.9604919080382193  0.0707178620372934  0.3778886078259955
  0.5707178545773975  0.0395081180141288  0.1278886078007431
  0.9292821454158594  0.4604918782323368  0.6278886078512417
  0.9604919080382193  0.4292821453956445  0.8721113922160894
  0.5395080919550448  0.0707178620372934  0.3721113921655916
  0.9292821454158594  0.0395081180141288  0.6221113921908367
  0.5707178545773975  0.4604918782323368  0.1221113922245026
  0.0000000000000000  0.0000000000000000  0.4381631927953645
  0.5000000000202149  0.5000000000202149  0.9381632226384221
  0.0000000000000000  0.5000000000202149  0.6881632226131694
  0.5000000000202149  0.0000000000000000  0.1881631928542755
  0.5000000000202149  0.0000000000000000  0.3118368071962227
  0.0000000000000000  0.5000000000202149  0.8118367773699978
  0.5000000000202149  0.5000000000202149  0.0618368071709700
  0.0000000000000000  0.0000000000000000  0.5618367773447451
  0.3141574456061705  0.7499999999966320  0.1249999999705409
  0.1858425544140513  0.7499999999966320  0.6250000000210392
  0.2499999999764171  0.8141574456263859  0.3749999999957936
  0.2499999999764171  0.6858425543668781  0.8749999999621281
  0.8141574456263859  0.2499999999764171  0.6250000000210392
  0.6858425543668781  0.2499999999764171  0.1249999999705409
  0.7499999999966320  0.3141574456061705  0.8749999999621281
  0.7499999999966320  0.1858425544140513  0.3749999999957936
  0.0000000000000000  0.0000000000000000  0.1083801768278292
  0.5000000000202149  0.5000000000202149  0.6083801991806657
  0.0000000000000000  0.5000000000202149  0.3583801693628529
  0.5000000000202149  0.0000000000000000  0.8583801991217546
  0.5000000000202149  0.0000000000000000  0.6416198008614127
  0.0000000000000000  0.5000000000202149  0.1416198306876381
  0.5000000000202149  0.5000000000202149  0.3916198306287271
  0.0000000000000000  0.0000000000000000  0.8916198008866654
  0.0690397997815400  0.8711808707132173  0.4214933307277036
  0.4309602002386748  0.6288191292800397  0.9214933306940447
  0.1288191442200461  0.5690397699487064  0.6714933306687920
  0.3711808706930022  0.9309602300445576  0.1714933307024578
  0.4309602002386748  0.8711808707132173  0.3285066693480403
  0.0690397997815400  0.6288191292800397  0.8285066693143752
  0.3711808706930022  0.5690397699487064  0.0785066693227877
  0.1288191442200461  0.9309602300445576  0.5785066692891296
  0.5690397699487064  0.3711808706930022  0.9214933306940447
  0.9309602300445576  0.1288191442200461  0.4214933307277036
  0.6288191292800397  0.0690397997815400  0.1714933307024578
  0.8711808707132173  0.4309602002386748  0.6714933306687920
  0.9309602300445576  0.3711808706930022  0.8285066693143752
  0.5690397699487064  0.1288191442200461  0.3285066693480403
  0.8711808707132173  0.0690397997815400  0.5785066692891296
  0.6288191292800397  0.4309602002386748  0.0785066693227877
  0.2486048912249620  0.7499999999966320  0.1249999999705409
  0.2513950938350316  0.7499999999966320  0.6250000000210392
  0.2499999999764171  0.7486049061380105  0.3749999999957936
  0.2499999999764171  0.7513950938552536  0.8749999999621281
  0.7486049061380105  0.2499999999764171  0.6250000000210392
  0.7513950938552536  0.2499999999764171  0.1249999999705409
  0.7499999999966320  0.2486048912249620  0.8749999999621281
  0.7499999999966320  0.2513950938350316  0.3749999999957936
  0.1220828692480488  0.8761755188981003  0.1038712772687334
  0.3779171307721661  0.6238244810951638  0.6038712847252899
  0.1238245034478865  0.6220828692008761  0.3538712847842008
  0.3761754890922176  0.8779171307923880  0.8538712847505355
  0.3779171307721661  0.8761755188981003  0.6461287152326317
  0.1220828692480488  0.6238244810951638  0.1461287152662975
  0.3761754890922176  0.6220828692008761  0.3961287152073864
  0.1238245034478865  0.8779171307923880  0.8961287152578773
  0.6220828692008761  0.3761754890922176  0.6038712847252899
  0.8779171307923880  0.1238245034478865  0.1038712772687334
  0.6238244810951638  0.1220828692480488  0.8538712847505355
  0.8761755188981003  0.3779171307721661  0.3538712847842008
  0.8779171307923880  0.3761754890922176  0.1461287152662975
  0.6220828692008761  0.1238245034478865  0.6461287152326317
  0.8761755188981003  0.1220828692480488  0.8961287152578773
  0.6238244810951638  0.3779171307721661  0.3961287152073864
  0.1055479936968812  0.7851814495747712  0.2560869079883041
  0.3944520137360565  0.7148185504184928  0.7560869080388021
  0.2148185652911045  0.6055480160900406  0.5060869080135494
  0.2851814496219441  0.8944519839032163  0.0060869080472152
  0.3944520137360565  0.7851814495747712  0.4939130920032759
  0.1055479936968812  0.7148185504184928  0.9939130919696179
  0.2851814496219441  0.6055480160900406  0.2439130919780304
  0.2148185652911045  0.8944519839032163  0.7439130919443652
  0.6055480160900406  0.2851814496219441  0.7560869080388021
  0.8944519839032163  0.2148185652911045  0.2560869079883041
  0.7148185504184928  0.1055479936968812  0.0060869080472152
  0.7851814495747712  0.3944520137360565  0.5060869080135494
  0.8944519839032163  0.2851814496219441  0.9939130919696179
  0.6055480160900406  0.2148185652911045  0.4939130920032759
  0.7851814495747712  0.1055479936968812  0.7439130919443652
  0.7148185504184928  0.3944520137360565  0.2439130919780304
 
  0.00000000E+00  0.00000000E+00  0.00000000E+00
  0.00000000E+00  0.00000000E+00  0.00000000E+00
  0.00000000E+00  0.00000000E+00  0.00000000E+00
  0.00000000E+00  0.00000000E+00  0.00000000E+00
  0.00000000E+00  0.00000000E+00  0.00000000E+00
  0.00000000E+00  0.00000000E+00  0.00000000E+00
  0.00000000E+00  0.00000000E+00  0.00000000E+00
  0.00000000E+00  0.00000000E+00  0.00000000E+00
  0.00000000E+00  0.00000000E+00  0.00000000E+00
  0.00000000E+00  0.00000000E+00  0.00000000E+00
  0.00000000E+00  0.00000000E+00  0.00000000E+00
  0.00000000E+00  0.00000000E+00  0.00000000E+00
  0.00000000E+00  0.00000000E+00  0.00000000E+00
  0.00000000E+00  0.00000000E+00  0.00000000E+00
  0.00000000E+00  0.00000000E+00  0.00000000E+00
  0.00000000E+00  0.00000000E+00  0.00000000E+00
  0.00000000E+00  0.00000000E+00  0.00000000E+00
  0.00000000E+00  0.00000000E+00  0.00000000E+00
  0.00000000E+00  0.00000000E+00  0.00000000E+00
  0.00000000E+00  0.00000000E+00  0.00000000E+00
  0.00000000E+00  0.00000000E+00  0.00000000E+00
  0.00000000E+00  0.00000000E+00  0.00000000E+00
  0.00000000E+00  0.00000000E+00  0.00000000E+00
  0.00000000E+00  0.00000000E+00  0.00000000E+00
  0.00000000E+00  0.00000000E+00  0.00000000E+00
  0.00000000E+00  0.00000000E+00  0.00000000E+00
  0.00000000E+00  0.00000000E+00  0.00000000E+00
  0.00000000E+00  0.00000000E+00  0.00000000E+00
  0.00000000E+00  0.00000000E+00  0.00000000E+00
  0.00000000E+00  0.00000000E+00  0.00000000E+00
  0.00000000E+00  0.00000000E+00  0.00000000E+00
  0.00000000E+00  0.00000000E+00  0.00000000E+00
  0.00000000E+00  0.00000000E+00  0.00000000E+00
  0.00000000E+00  0.00000000E+00  0.00000000E+00
  0.00000000E+00  0.00000000E+00  0.00000000E+00
  0.00000000E+00  0.00000000E+00  0.00000000E+00
  0.00000000E+00  0.00000000E+00  0.00000000E+00
  0.00000000E+00  0.00000000E+00  0.00000000E+00
  0.00000000E+00  0.00000000E+00  0.00000000E+00
  0.00000000E+00  0.00000000E+00  0.00000000E+00
  0.00000000E+00  0.00000000E+00  0.00000000E+00
  0.00000000E+00  0.00000000E+00  0.00000000E+00
  0.00000000E+00  0.00000000E+00  0.00000000E+00
  0.00000000E+00  0.00000000E+00  0.00000000E+00
  0.00000000E+00  0.00000000E+00  0.00000000E+00
  0.00000000E+00  0.00000000E+00  0.00000000E+00
  0.00000000E+00  0.00000000E+00  0.00000000E+00
  0.00000000E+00  0.00000000E+00  0.00000000E+00
  0.00000000E+00  0.00000000E+00  0.00000000E+00
  0.00000000E+00  0.00000000E+00  0.00000000E+00
  0.00000000E+00  0.00000000E+00  0.00000000E+00
  0.00000000E+00  0.00000000E+00  0.00000000E+00
  0.00000000E+00  0.00000000E+00  0.00000000E+00
  0.00000000E+00  0.00000000E+00  0.00000000E+00
  0.00000000E+00  0.00000000E+00  0.00000000E+00
  0.00000000E+00  0.00000000E+00  0.00000000E+00
  0.00000000E+00  0.00000000E+00  0.00000000E+00
  0.00000000E+00  0.00000000E+00  0.00000000E+00
  0.00000000E+00  0.00000000E+00  0.00000000E+00
  0.00000000E+00  0.00000000E+00  0.00000000E+00
  0.00000000E+00  0.00000000E+00  0.00000000E+00
  0.00000000E+00  0.00000000E+00  0.00000000E+00
  0.00000000E+00  0.00000000E+00  0.00000000E+00
  0.00000000E+00  0.00000000E+00  0.00000000E+00
  0.00000000E+00  0.00000000E+00  0.00000000E+00
  0.00000000E+00  0.00000000E+00  0.00000000E+00
  0.00000000E+00  0.00000000E+00  0.00000000E+00
  0.00000000E+00  0.00000000E+00  0.00000000E+00
  0.00000000E+00  0.00000000E+00  0.00000000E+00
  0.00000000E+00  0.00000000E+00  0.00000000E+00
  0.00000000E+00  0.00000000E+00  0.00000000E+00
  0.00000000E+00  0.00000000E+00  0.00000000E+00
  0.00000000E+00  0.00000000E+00  0.00000000E+00
  0.00000000E+00  0.00000000E+00  0.00000000E+00
  0.00000000E+00  0.00000000E+00  0.00000000E+00
  0.00000000E+00  0.00000000E+00  0.00000000E+00
  0.00000000E+00  0.00000000E+00  0.00000000E+00
  0.00000000E+00  0.00000000E+00  0.00000000E+00
  0.00000000E+00  0.00000000E+00  0.00000000E+00
  0.00000000E+00  0.00000000E+00  0.00000000E+00
  0.00000000E+00  0.00000000E+00  0.00000000E+00
  0.00000000E+00  0.00000000E+00  0.00000000E+00
  0.00000000E+00  0.00000000E+00  0.00000000E+00
  0.00000000E+00  0.00000000E+00  0.00000000E+00
  0.00000000E+00  0.00000000E+00  0.00000000E+00
  0.00000000E+00  0.00000000E+00  0.00000000E+00
  0.00000000E+00  0.00000000E+00  0.00000000E+00
  0.00000000E+00  0.00000000E+00  0.00000000E+00
  0.00000000E+00  0.00000000E+00  0.00000000E+00
  0.00000000E+00  0.00000000E+00  0.00000000E+00
  0.00000000E+00  0.00000000E+00  0.00000000E+00
  0.00000000E+00  0.00000000E+00  0.00000000E+00
  0.00000000E+00  0.00000000E+00  0.00000000E+00
  0.00000000E+00  0.00000000E+00  0.00000000E+00
  0.00000000E+00  0.00000000E+00  0.00000000E+00
  0.00000000E+00  0.00000000E+00  0.00000000E+00
  0.00000000E+00  0.00000000E+00  0.00000000E+00
  0.00000000E+00  0.00000000E+00  0.00000000E+00
  0.00000000E+00  0.00000000E+00  0.00000000E+00
  0.00000000E+00  0.00000000E+00  0.00000000E+00
  0.00000000E+00  0.00000000E+00  0.00000000E+00
  0.00000000E+00  0.00000000E+00  0.00000000E+00
  0.00000000E+00  0.00000000E+00  0.00000000E+00
  0.00000000E+00  0.00000000E+00  0.00000000E+00
  0.00000000E+00  0.00000000E+00  0.00000000E+00
  0.00000000E+00  0.00000000E+00  0.00000000E+00
  0.00000000E+00  0.00000000E+00  0.00000000E+00
  0.00000000E+00  0.00000000E+00  0.00000000E+00
  0.00000000E+00  0.00000000E+00  0.00000000E+00
  0.00000000E+00  0.00000000E+00  0.00000000E+00
  0.00000000E+00  0.00000000E+00  0.00000000E+00
  0.00000000E+00  0.00000000E+00  0.00000000E+00
  0.00000000E+00  0.00000000E+00  0.00000000E+00
  0.00000000E+00  0.00000000E+00  0.00000000E+00
  0.00000000E+00  0.00000000E+00  0.00000000E+00
  0.00000000E+00  0.00000000E+00  0.00000000E+00
  0.00000000E+00  0.00000000E+00  0.00000000E+00
  0.00000000E+00  0.00000000E+00  0.00000000E+00
  0.00000000E+00  0.00000000E+00  0.00000000E+00
  0.00000000E+00  0.00000000E+00  0.00000000E+00
  0.00000000E+00  0.00000000E+00  0.00000000E+00
  0.00000000E+00  0.00000000E+00  0.00000000E+00
  0.00000000E+00  0.00000000E+00  0.00000000E+00
  0.00000000E+00  0.00000000E+00  0.00000000E+00
  0.00000000E+00  0.00000000E+00  0.00000000E+00
  0.00000000E+00  0.00000000E+00  0.00000000E+00
  0.00000000E+00  0.00000000E+00  0.00000000E+00
  0.00000000E+00  0.00000000E+00  0.00000000E+00
  0.00000000E+00  0.00000000E+00  0.00000000E+00
  0.00000000E+00  0.00000000E+00  0.00000000E+00
  0.00000000E+00  0.00000000E+00  0.00000000E+00
  0.00000000E+00  0.00000000E+00  0.00000000E+00
  0.00000000E+00  0.00000000E+00  0.00000000E+00
  0.00000000E+00  0.00000000E+00  0.00000000E+00
  0.00000000E+00  0.00000000E+00  0.00000000E+00
  0.00000000E+00  0.00000000E+00  0.00000000E+00
  0.00000000E+00  0.00000000E+00  0.00000000E+00
  0.00000000E+00  0.00000000E+00  0.00000000E+00
  0.00000000E+00  0.00000000E+00  0.00000000E+00
  0.00000000E+00  0.00000000E+00  0.00000000E+00
  0.00000000E+00  0.00000000E+00  0.00000000E+00
  0.00000000E+00  0.00000000E+00  0.00000000E+00
  0.00000000E+00  0.00000000E+00  0.00000000E+00
  0.00000000E+00  0.00000000E+00  0.00000000E+00
