NOTT300_0GPa                            
   1.00000000000000     
    14.7585297417826133    0.0000000000000000    0.0000000000000000
     0.0000000000000000   14.7585297417826133    0.0000000000000000
     0.0000000000000000    0.0000000000000000   11.8091311513602282
   Al   C    H    O 
     8    64    32    40
Direct
  0.1922023552156477  0.8077976298645603  0.0000000000000000
  0.3077976299117336  0.6922023701286967  0.4999999999663345
  0.1922023552156477  0.6922023701286967  0.2500000000252456
  0.3077976299117336  0.8077976298645603  0.7499999999915872
  0.6922023701286967  0.3077976299117336  0.4999999999663345
  0.8077976298645603  0.1922023552156477  0.0000000000000000
  0.6922023701286967  0.1922023552156477  0.7499999999915872
  0.8077976298645603  0.3077976299117336  0.2500000000252456
  0.0929477428752929  0.8582243393065322  0.2011194974748648
  0.4070522720377557  0.6417756606867248  0.7011194825449197
  0.1417756606665095  0.5929477280026741  0.4511194826038304
  0.3582243393537056  0.9070522720579707  0.9511194825701725
  0.4070522720377557  0.8582243393065322  0.5488805174130018
  0.0929477428752929  0.6417756606867248  0.0488805025503809
  0.3582243393537056  0.5929477280026741  0.2988805173877497
  0.1417756606665095  0.9070522720579707  0.7988805174382475
  0.5929477280026741  0.3582243393537056  0.7011194825449198
  0.9070522720579707  0.1417756606665095  0.2011194974748648
  0.6417756606867248  0.0929477428752929  0.9511194825701725
  0.8582243393065322  0.4070522720377557  0.4511194826038304
  0.9070522720579707  0.3582243393537056  0.0488805025503809
  0.5929477280026741  0.1417756606665095  0.5488805174130018
  0.8582243393065322  0.0929477428752929  0.7988805174382474
  0.6417756606867248  0.4070522720377557  0.2988805173877497
  0.0417828587635070  0.9303930870298543  0.2600097204270905
  0.4582171375503535  0.5696069129634097  0.7600097203934327
  0.0696068980503611  0.5417828624900828  0.5100097204523438
  0.4303930870096325  0.9582171375031813  0.0100097204018451
  0.4582171375503535  0.9303930870298543  0.4899902795644896
  0.0417828587635070  0.5696069129634097  0.9899902796149872
  0.4303930870096325  0.5417828624900828  0.2399902796234006
  0.0696068980503611  0.9582171375031813  0.7399902795897416
  0.5417828624900828  0.4303930870096325  0.7600097203934327
  0.9582171375031813  0.0696068980503611  0.2600097204270905
  0.5696069129634097  0.0417828587635070  0.0100097204018451
  0.9303930870298543  0.4582171375503535  0.5100097204523438
  0.9582171375031813  0.4303930870096325  0.9899902796149872
  0.5417828624900828  0.0696068980503611  0.4899902795644896
  0.9303930870298543  0.0417828587635070  0.7399902795897416
  0.5696069129634097  0.4582171375503535  0.2399902796234006
  0.0000000000000000 -0.0000000000000000  0.1998952521249543
  0.5000000000202149  0.5000000000202149  0.6998952371950091
  0.0000000000000000  0.5000000000202149  0.4498952372539203
  0.5000000000202149 -0.0000000000000000  0.9498952372202618
  0.5000000000202149 -0.0000000000000000  0.5501047627629054
  0.0000000000000000  0.5000000000202149  0.0501047479002912
  0.5000000000202149  0.5000000000202149  0.3001047627376598
  0.0000000000000000 -0.0000000000000000  0.8001047627881581
  0.0393606045410943  0.9289289167122361  0.3778308301223246
  0.4606393917053714  0.5710710832810209  0.8778308300886593
  0.0710710907409169  0.5393605784820106  0.6278308301475704
  0.4289289166920208  0.9606394215112535  0.1278308300970719
  0.4606393917053714  0.9289289167122361  0.3721691698692626
  0.0393606045410943  0.5710710832810209  0.8721691699197607
  0.4289289166920208  0.5393605784820106  0.1221691699281737
  0.0710710907409169  0.9606394215112535  0.6221691698945080
  0.5393605784820106  0.4289289166920208  0.8778308300886593
  0.9606394215112535  0.0710710907409169  0.3778308301223246
  0.5710710832810209  0.0393606045410943  0.1278308300970719
  0.9289289167122361  0.4606393917053714  0.6278308301475704
  0.9606394215112535  0.4289289166920208  0.8721691699197607
  0.5393605784820106  0.0710710907409169  0.3721691698692626
  0.9289289167122361  0.0393606045410943  0.6221691698945080
  0.5710710832810209  0.4606393917053714  0.1221691699281737
  0.0000000000000000 -0.0000000000000000  0.4380994312426316
  0.5000000000202149  0.5000000000202149  0.9380994610856891
  0.0000000000000000  0.5000000000202149  0.6880994610604364
  0.5000000000202149 -0.0000000000000000  0.1880994313015427
  0.5000000000202149 -0.0000000000000000  0.3119005687489556
  0.0000000000000000  0.5000000000202149  0.8119005389227308
  0.5000000000202149  0.5000000000202149  0.0619005687237029
  0.0000000000000000 -0.0000000000000000  0.5619005388974782
  0.3152338989109963  0.7499999999966320  0.1249999999705409
  0.1847661011092258  0.7499999999966320  0.6250000000210392
  0.2499999999764171  0.8152338989312111  0.3749999999957936
  0.2499999999764171  0.6847661010620529  0.8749999999621281
  0.8152338989312111  0.2499999999764171  0.6250000000210392
  0.6847661010620529  0.2499999999764171  0.1249999999705409
  0.7499999999966320  0.3152338989109963  0.8749999999621281
  0.7499999999966320  0.1847661011092258  0.3749999999957936
  0.0000000000000000 -0.0000000000000000  0.1073842617579444
  0.5000000000202149  0.5000000000202149  0.6073842841107808
  0.0000000000000000  0.5000000000202149  0.3573842542929682
  0.5000000000202149 -0.0000000000000000  0.8573842840518697
  0.5000000000202149 -0.0000000000000000  0.6426157159312975
  0.0000000000000000  0.5000000000202149  0.1426157457575229
  0.5000000000202149  0.5000000000202149  0.3926157456986119
  0.0000000000000000 -0.0000000000000000  0.8926157159565502
  0.0688243744042073  0.8705814850523559  0.4215943263829741
  0.4311756256160079  0.6294185149409011  0.9215943263493157
  0.1294185298809075  0.5688243445713740  0.6715943263240630
  0.3705814850321412  0.9311756554218901  0.1715943263577285
  0.4311756256160079  0.8705814850523559  0.3284056736927697
  0.0688243744042073  0.6294185149409011  0.8284056736591042
  0.3705814850321412  0.5688243445713740  0.0784056736675170
  0.1294185298809075  0.9311756554218901  0.5784056736338586
  0.5688243445713740  0.3705814850321412  0.9215943263493157
  0.9311756554218901  0.1294185298809075  0.4215943263829741
  0.6294185149409011  0.0688243744042073  0.1715943263577285
  0.8705814850523559  0.4311756256160079  0.6715943263240630
  0.9311756554218901  0.3705814850321412  0.8284056736591042
  0.5688243445713740  0.1294185298809075  0.3284056736927697
  0.8705814850523559  0.0688243744042073  0.5784056736338586
  0.6294185149409011  0.4311756256160079  0.0784056736675170
  0.2494962204495721  0.7499999999966320  0.1249999999705409
  0.2505037646104214  0.7499999999966320  0.6250000000210392
  0.2499999999764171  0.7494962353626211  0.3749999999957936
  0.2499999999764171  0.7505037646306429  0.8749999999621281
  0.7494962353626211  0.2499999999764171  0.6250000000210392
  0.7505037646306429  0.2499999999764171  0.1249999999705409
  0.7499999999966320  0.2494962204495721  0.8749999999621281
  0.7499999999966320  0.2505037646104214  0.3749999999957936
  0.1230525928667822  0.8769198181402350  0.1037959239166980
  0.3769474071534326  0.6230801818530290  0.6037959313732546
  0.1230802042057516  0.6230525928196095  0.3537959314321654
  0.3769197883343526  0.8769474071736546  0.8537959313985002
  0.3769474071534326  0.8769198181402350  0.6462040685846671
  0.1230525928667822  0.6230801818530290  0.1462040686183329
  0.3769197883343526  0.6230525928196095  0.3962040685594218
  0.1230802042057516  0.8769474071736546  0.8962040686099126
  0.6230525928196095  0.3769197883343526  0.6037959313732546
  0.8769474071736546  0.1230802042057516  0.1037959239166980
  0.6230801818530290  0.1230525928667822  0.8537959313985002
  0.8769198181402350  0.3769474071534326  0.3537959314321654
  0.8769474071736546  0.3769197883343526  0.1462040686183329
  0.6230525928196095  0.1230802042057516  0.6462040685846671
  0.8769198181402350  0.1230525928667822  0.8962040686099126
  0.6230801818530290  0.3769474071534326  0.3962040685594218
  0.1048661642426746  0.7845461596300671  0.2551604976444441
  0.3951338431902632  0.7154538403631969  0.7551604976949426
  0.2154538552358087  0.6048661866358334  0.5051604976696900
  0.2845461596772398  0.8951338133574236  0.0051604977033550
  0.3951338431902632  0.7845461596300671  0.4948395023471360
  0.1048661642426746  0.7154538403631969  0.9948395023134773
  0.2845461596772398  0.6048661866358334  0.2448395023218906
  0.2154538552358087  0.8951338133574236  0.7448395022882246
  0.6048661866358334  0.2845461596772398  0.7551604976949426
  0.8951338133574236  0.2154538552358087  0.2551604976444441
  0.7154538403631969  0.1048661642426746  0.0051604977033550
  0.7845461596300671  0.3951338431902632  0.5051604976696900
  0.8951338133574236  0.2845461596772398  0.9948395023134773
  0.6048661866358334  0.2154538552358087  0.4948395023471360
  0.7845461596300671  0.1048661642426746  0.7448395022882246
  0.7154538403631969  0.3951338431902632  0.2448395023218906
 
  0.00000000E+00  0.00000000E+00  0.00000000E+00
  0.00000000E+00  0.00000000E+00  0.00000000E+00
  0.00000000E+00  0.00000000E+00  0.00000000E+00
  0.00000000E+00  0.00000000E+00  0.00000000E+00
  0.00000000E+00  0.00000000E+00  0.00000000E+00
  0.00000000E+00  0.00000000E+00  0.00000000E+00
  0.00000000E+00  0.00000000E+00  0.00000000E+00
  0.00000000E+00  0.00000000E+00  0.00000000E+00
  0.00000000E+00  0.00000000E+00  0.00000000E+00
  0.00000000E+00  0.00000000E+00  0.00000000E+00
  0.00000000E+00  0.00000000E+00  0.00000000E+00
  0.00000000E+00  0.00000000E+00  0.00000000E+00
  0.00000000E+00  0.00000000E+00  0.00000000E+00
  0.00000000E+00  0.00000000E+00  0.00000000E+00
  0.00000000E+00  0.00000000E+00  0.00000000E+00
  0.00000000E+00  0.00000000E+00  0.00000000E+00
  0.00000000E+00  0.00000000E+00  0.00000000E+00
  0.00000000E+00  0.00000000E+00  0.00000000E+00
  0.00000000E+00  0.00000000E+00  0.00000000E+00
  0.00000000E+00  0.00000000E+00  0.00000000E+00
  0.00000000E+00  0.00000000E+00  0.00000000E+00
  0.00000000E+00  0.00000000E+00  0.00000000E+00
  0.00000000E+00  0.00000000E+00  0.00000000E+00
  0.00000000E+00  0.00000000E+00  0.00000000E+00
  0.00000000E+00  0.00000000E+00  0.00000000E+00
  0.00000000E+00  0.00000000E+00  0.00000000E+00
  0.00000000E+00  0.00000000E+00  0.00000000E+00
  0.00000000E+00  0.00000000E+00  0.00000000E+00
  0.00000000E+00  0.00000000E+00  0.00000000E+00
  0.00000000E+00  0.00000000E+00  0.00000000E+00
  0.00000000E+00  0.00000000E+00  0.00000000E+00
  0.00000000E+00  0.00000000E+00  0.00000000E+00
  0.00000000E+00  0.00000000E+00  0.00000000E+00
  0.00000000E+00  0.00000000E+00  0.00000000E+00
  0.00000000E+00  0.00000000E+00  0.00000000E+00
  0.00000000E+00  0.00000000E+00  0.00000000E+00
  0.00000000E+00  0.00000000E+00  0.00000000E+00
  0.00000000E+00  0.00000000E+00  0.00000000E+00
  0.00000000E+00  0.00000000E+00  0.00000000E+00
  0.00000000E+00  0.00000000E+00  0.00000000E+00
  0.00000000E+00  0.00000000E+00  0.00000000E+00
  0.00000000E+00  0.00000000E+00  0.00000000E+00
  0.00000000E+00  0.00000000E+00  0.00000000E+00
  0.00000000E+00  0.00000000E+00  0.00000000E+00
  0.00000000E+00  0.00000000E+00  0.00000000E+00
  0.00000000E+00  0.00000000E+00  0.00000000E+00
  0.00000000E+00  0.00000000E+00  0.00000000E+00
  0.00000000E+00  0.00000000E+00  0.00000000E+00
  0.00000000E+00  0.00000000E+00  0.00000000E+00
  0.00000000E+00  0.00000000E+00  0.00000000E+00
  0.00000000E+00  0.00000000E+00  0.00000000E+00
  0.00000000E+00  0.00000000E+00  0.00000000E+00
  0.00000000E+00  0.00000000E+00  0.00000000E+00
  0.00000000E+00  0.00000000E+00  0.00000000E+00
  0.00000000E+00  0.00000000E+00  0.00000000E+00
  0.00000000E+00  0.00000000E+00  0.00000000E+00
  0.00000000E+00  0.00000000E+00  0.00000000E+00
  0.00000000E+00  0.00000000E+00  0.00000000E+00
  0.00000000E+00  0.00000000E+00  0.00000000E+00
  0.00000000E+00  0.00000000E+00  0.00000000E+00
  0.00000000E+00  0.00000000E+00  0.00000000E+00
  0.00000000E+00  0.00000000E+00  0.00000000E+00
  0.00000000E+00  0.00000000E+00  0.00000000E+00
  0.00000000E+00  0.00000000E+00  0.00000000E+00
  0.00000000E+00  0.00000000E+00  0.00000000E+00
  0.00000000E+00  0.00000000E+00  0.00000000E+00
  0.00000000E+00  0.00000000E+00  0.00000000E+00
  0.00000000E+00  0.00000000E+00  0.00000000E+00
  0.00000000E+00  0.00000000E+00  0.00000000E+00
  0.00000000E+00  0.00000000E+00  0.00000000E+00
  0.00000000E+00  0.00000000E+00  0.00000000E+00
  0.00000000E+00  0.00000000E+00  0.00000000E+00
  0.00000000E+00  0.00000000E+00  0.00000000E+00
  0.00000000E+00  0.00000000E+00  0.00000000E+00
  0.00000000E+00  0.00000000E+00  0.00000000E+00
  0.00000000E+00  0.00000000E+00  0.00000000E+00
  0.00000000E+00  0.00000000E+00  0.00000000E+00
  0.00000000E+00  0.00000000E+00  0.00000000E+00
  0.00000000E+00  0.00000000E+00  0.00000000E+00
  0.00000000E+00  0.00000000E+00  0.00000000E+00
  0.00000000E+00  0.00000000E+00  0.00000000E+00
  0.00000000E+00  0.00000000E+00  0.00000000E+00
  0.00000000E+00  0.00000000E+00  0.00000000E+00
  0.00000000E+00  0.00000000E+00  0.00000000E+00
  0.00000000E+00  0.00000000E+00  0.00000000E+00
  0.00000000E+00  0.00000000E+00  0.00000000E+00
  0.00000000E+00  0.00000000E+00  0.00000000E+00
  0.00000000E+00  0.00000000E+00  0.00000000E+00
  0.00000000E+00  0.00000000E+00  0.00000000E+00
  0.00000000E+00  0.00000000E+00  0.00000000E+00
  0.00000000E+00  0.00000000E+00  0.00000000E+00
  0.00000000E+00  0.00000000E+00  0.00000000E+00
  0.00000000E+00  0.00000000E+00  0.00000000E+00
  0.00000000E+00  0.00000000E+00  0.00000000E+00
  0.00000000E+00  0.00000000E+00  0.00000000E+00
  0.00000000E+00  0.00000000E+00  0.00000000E+00
  0.00000000E+00  0.00000000E+00  0.00000000E+00
  0.00000000E+00  0.00000000E+00  0.00000000E+00
  0.00000000E+00  0.00000000E+00  0.00000000E+00
  0.00000000E+00  0.00000000E+00  0.00000000E+00
  0.00000000E+00  0.00000000E+00  0.00000000E+00
  0.00000000E+00  0.00000000E+00  0.00000000E+00
  0.00000000E+00  0.00000000E+00  0.00000000E+00
  0.00000000E+00  0.00000000E+00  0.00000000E+00
  0.00000000E+00  0.00000000E+00  0.00000000E+00
  0.00000000E+00  0.00000000E+00  0.00000000E+00
  0.00000000E+00  0.00000000E+00  0.00000000E+00
  0.00000000E+00  0.00000000E+00  0.00000000E+00
  0.00000000E+00  0.00000000E+00  0.00000000E+00
  0.00000000E+00  0.00000000E+00  0.00000000E+00
  0.00000000E+00  0.00000000E+00  0.00000000E+00
  0.00000000E+00  0.00000000E+00  0.00000000E+00
  0.00000000E+00  0.00000000E+00  0.00000000E+00
  0.00000000E+00  0.00000000E+00  0.00000000E+00
  0.00000000E+00  0.00000000E+00  0.00000000E+00
  0.00000000E+00  0.00000000E+00  0.00000000E+00
  0.00000000E+00  0.00000000E+00  0.00000000E+00
  0.00000000E+00  0.00000000E+00  0.00000000E+00
  0.00000000E+00  0.00000000E+00  0.00000000E+00
  0.00000000E+00  0.00000000E+00  0.00000000E+00
  0.00000000E+00  0.00000000E+00  0.00000000E+00
  0.00000000E+00  0.00000000E+00  0.00000000E+00
  0.00000000E+00  0.00000000E+00  0.00000000E+00
  0.00000000E+00  0.00000000E+00  0.00000000E+00
  0.00000000E+00  0.00000000E+00  0.00000000E+00
  0.00000000E+00  0.00000000E+00  0.00000000E+00
  0.00000000E+00  0.00000000E+00  0.00000000E+00
  0.00000000E+00  0.00000000E+00  0.00000000E+00
  0.00000000E+00  0.00000000E+00  0.00000000E+00
  0.00000000E+00  0.00000000E+00  0.00000000E+00
  0.00000000E+00  0.00000000E+00  0.00000000E+00
  0.00000000E+00  0.00000000E+00  0.00000000E+00
  0.00000000E+00  0.00000000E+00  0.00000000E+00
  0.00000000E+00  0.00000000E+00  0.00000000E+00
  0.00000000E+00  0.00000000E+00  0.00000000E+00
  0.00000000E+00  0.00000000E+00  0.00000000E+00
  0.00000000E+00  0.00000000E+00  0.00000000E+00
  0.00000000E+00  0.00000000E+00  0.00000000E+00
  0.00000000E+00  0.00000000E+00  0.00000000E+00
  0.00000000E+00  0.00000000E+00  0.00000000E+00
  0.00000000E+00  0.00000000E+00  0.00000000E+00
  0.00000000E+00  0.00000000E+00  0.00000000E+00
  0.00000000E+00  0.00000000E+00  0.00000000E+00
  0.00000000E+00  0.00000000E+00  0.00000000E+00
