# 
# Keywords:
# 
opti fix comp prop conv molmec phon  
# 
# Options:
# 
cell
  14.729880  14.729923  11.368051  89.999960  90.000022  90.000000
fractional  1   
Al3   core 0.1918600 0.8081399 0.0000000 3.00000000 1.00000 0.00000             
Al3   core 0.2931515 0.7068496 0.4999998 3.00000000 1.00000 0.00000             
Al3   core 0.2003726 0.7153624 0.2500001 3.00000000 1.00000 0.00000             
Al3   core 0.2846388 0.7996268 0.7500004 3.00000000 1.00000 0.00000             
Al3   core 0.7003733 0.2996274 0.5000004 3.00000000 1.00000 0.00000             
Al3   core 0.7846385 0.2153617 0.0000005 3.00000000 1.00000 0.00000             
Al3   core 0.6918606 0.2068490 0.7500005 3.00000000 1.00000 0.00000             
Al3   core 0.7931511 0.3081405 0.2500003 3.00000000 1.00000 0.00000             
C913  core 0.0849493 0.8647914 0.1995805 1.07050000 1.00000 0.00000             
C913  core 0.4000619 0.6501983 0.6995811 1.07050000 1.00000 0.00000             
C913  core 0.1237559 0.6258221 0.4641107 1.07050000 1.00000 0.00000             
C913  core 0.3612556 0.8891672 0.9641110 1.07050000 1.00000 0.00000             
C913  core 0.3741770 0.8762462 0.5358904 1.07050000 1.00000 0.00000             
C913  core 0.1108337 0.6387439 0.0358899 1.07050000 1.00000 0.00000             
C913  core 0.3498030 0.5999407 0.3004179 1.07050000 1.00000 0.00000             
C913  core 0.1352088 0.9150482 0.8004173 1.07050000 1.00000 0.00000             
C913  core 0.6108347 0.3762457 0.7141105 1.07050000 1.00000 0.00000             
C913  core 0.8741766 0.1387440 0.2141123 1.07050000 1.00000 0.00000             
C913  core 0.6352082 0.0999404 0.9495828 1.07050000 1.00000 0.00000             
C913  core 0.8498033 0.4150491 0.4495821 1.07050000 1.00000 0.00000             
C913  core 0.9000614 0.3647908 0.0504187 1.07050000 1.00000 0.00000             
C913  core 0.5849503 0.1501985 0.5504188 1.07050000 1.00000 0.00000             
C913  core 0.8612559 0.1258212 0.7858909 1.07050000 1.00000 0.00000             
C913  core 0.6237558 0.3891677 0.2858895 1.07050000 1.00000 0.00000             
C902  core 0.0294569 0.9384177 0.2536189 0.00500000 1.00000 0.00000             
C902  core 0.4555540 0.5765719 0.7536195 0.00500000 1.00000 0.00000             
C902  core 0.0492606 0.5682651 0.5109527 0.00500000 1.00000 0.00000             
C902  core 0.4357507 0.9467245 0.0109530 0.00500000 1.00000 0.00000             
C902  core 0.4317337 0.9507417 0.4890484 0.00500000 1.00000 0.00000             
C902  core 0.0532771 0.5642482 0.9890480 0.00500000 1.00000 0.00000             
C902  core 0.4234294 0.5444486 0.2463795 0.00500000 1.00000 0.00000             
C902  core 0.0615823 0.9705399 0.7463790 0.00500000 1.00000 0.00000             
C902  core 0.5532779 0.4507411 0.7609523 0.00500000 1.00000 0.00000             
C902  core 0.9317333 0.0642485 0.2609534 0.00500000 1.00000 0.00000             
C902  core 0.5615818 0.0444484 0.0036210 0.00500000 1.00000 0.00000             
C902  core 0.9234296 0.4705411 0.5036206 0.00500000 1.00000 0.00000             
C902  core 0.9555534 0.4384171 0.9963802 0.00500000 1.00000 0.00000             
C902  core 0.5294579 0.0765723 0.4963805 0.00500000 1.00000 0.00000             
C902  core 0.9357513 0.0682640 0.7390484 0.00500000 1.00000 0.00000             
C902  core 0.5492605 0.4467247 0.2390476 0.00500000 1.00000 0.00000             
C912  core 0.9759244 0.9999577 0.1946638 -0.0702500 1.00000 0.00000             
C912  core 0.5090865 0.5150325 0.6946641 -0.0702500 1.00000 0.00000             
C912  core 0.9849689 0.5240737 0.4446649 -0.0702500 1.00000 0.00000             
C912  core 0.5000424 0.9909159 0.9446652 -0.0702500 1.00000 0.00000             
C912  core 0.4759256 0.0150329 0.5553363 -0.0702500 1.00000 0.00000             
C912  core 0.0090856 0.4999567 0.0553358 -0.0702500 1.00000 0.00000             
C912  core 0.4849689 0.4909162 0.3053354 -0.0702500 1.00000 0.00000             
C912  core 0.0000434 0.0240724 0.8053353 -0.0702500 1.00000 0.00000             
C912  core 0.0370485 0.9412103 0.3725822 -0.0702500 1.00000 0.00000             
C912  core 0.4479622 0.5737787 0.8725827 -0.0702500 1.00000 0.00000             
C912  core 0.0493355 0.5617685 0.6294565 -0.0702500 1.00000 0.00000             
C912  core 0.4356756 0.9532212 0.1294568 -0.0702500 1.00000 0.00000             
C912  core 0.4382295 0.9506673 0.3705446 -0.0702500 1.00000 0.00000             
C912  core 0.0467811 0.5643227 0.8705442 -0.0702500 1.00000 0.00000             
C912  core 0.4262229 0.5520401 0.1274162 -0.0702500 1.00000 0.00000             
C912  core 0.0587884 0.9629482 0.6274159 -0.0702500 1.00000 0.00000             
C912  core 0.5467816 0.4506667 0.8794562 -0.0702500 1.00000 0.00000             
C912  core 0.9382299 0.0643226 0.3794571 -0.0702500 1.00000 0.00000             
C912  core 0.5587881 0.0520401 0.1225842 -0.0702500 1.00000 0.00000             
C912  core 0.9262232 0.4629493 0.6225837 -0.0702500 1.00000 0.00000             
C912  core 0.9479621 0.4412103 0.8774169 -0.0702500 1.00000 0.00000             
C912  core 0.5370491 0.0737791 0.3774173 -0.0702500 1.00000 0.00000             
C912  core 0.9356762 0.0617677 0.6205445 -0.0702500 1.00000 0.00000             
C912  core 0.5493354 0.4532212 0.1205438 -0.0702500 1.00000 0.00000             
C903  core 0.9910369 0.0036516 0.4359554 0.04225000 1.00000 0.00000             
C903  core 0.4939742 0.5113373 0.9359551 0.04225000 1.00000 0.00000             
C903  core 0.9886649 0.5089613 0.6859558 0.04225000 1.00000 0.00000             
C903  core 0.4963462 0.0060283 0.1859562 0.04225000 1.00000 0.00000             
C903  core 0.4910368 0.0113377 0.3140453 0.04225000 1.00000 0.00000             
C903  core 0.9939741 0.5036520 0.8140449 0.04225000 1.00000 0.00000             
C903  core 0.4886647 0.5060281 0.0640443 0.04225000 1.00000 0.00000             
C903  core 0.9963465 0.0089605 0.5640445 0.04225000 1.00000 0.00000             
H21   core 0.2760722 0.8010674 0.1210707 0.15000000 1.00000 0.00000             
H21   core 0.2089395 0.7139216 0.6210707 0.15000000 1.00000 0.00000             
H21   core 0.2860734 0.7910649 0.3789326 0.15000000 1.00000 0.00000             
H21   core 0.1989343 0.7239267 0.8789308 0.15000000 1.00000 0.00000             
H21   core 0.7760728 0.2139215 0.6289298 0.15000000 1.00000 0.00000             
H21   core 0.7089393 0.3010672 0.1289292 0.15000000 1.00000 0.00000             
H21   core 0.6989363 0.2910633 0.8710686 0.15000000 1.00000 0.00000             
H21   core 0.7860769 0.2239275 0.3710691 0.15000000 1.00000 0.00000             
H915  core 0.9535228 0.0209648 0.1091274 0.11250000 1.00000 0.00000             
H915  core 0.5314611 0.4940612 0.6090989 0.11250000 1.00000 0.00000             
H915  core 0.0059326 0.5464428 0.3590941 0.11250000 1.00000 0.00000             
H915  core 0.4790758 0.9685445 0.8590962 0.11250000 1.00000 0.00000             
H915  core 0.4535539 0.9940652 0.6409036 0.11250000 1.00000 0.00000             
H915  core 0.0314547 0.5209209 0.1409062 0.11250000 1.00000 0.00000             
H915  core 0.5059406 0.4685411 0.3909008 0.11250000 1.00000 0.00000             
H915  core 0.9791005 0.0464256 0.8909213 0.11250000 1.00000 0.00000             
H915  core 0.0804892 0.8908537 0.4112364 0.11250000 1.00000 0.00000             
H915  core 0.4045215 0.6241349 0.9112375 0.11250000 1.00000 0.00000             
H915  core 0.1014925 0.5990521 0.6742100 0.11250000 1.00000 0.00000             
H915  core 0.3835184 0.9159376 0.1742102 0.11250000 1.00000 0.00000             
H915  core 0.4009457 0.8985105 0.3257910 0.11250000 1.00000 0.00000             
H915  core 0.0840646 0.6164797 0.8257906 0.11250000 1.00000 0.00000             
H915  core 0.3758666 0.5954805 0.0887608 0.11250000 1.00000 0.00000             
H915  core 0.1091443 0.9195077 0.5887599 0.11250000 1.00000 0.00000             
H915  core 0.5840652 0.3985098 0.9242100 0.11250000 1.00000 0.00000             
H915  core 0.9009466 0.1164793 0.4242117 0.11250000 1.00000 0.00000             
H915  core 0.6091443 0.0954806 0.1612396 0.11250000 1.00000 0.00000             
H915  core 0.8758669 0.4195088 0.6612391 0.11250000 1.00000 0.00000             
H915  core 0.9045217 0.3908541 0.8387615 0.11250000 1.00000 0.00000             
H915  core 0.5804898 0.1241352 0.3387619 0.11250000 1.00000 0.00000             
H915  core 0.8835189 0.0990516 0.5757918 0.11250000 1.00000 0.00000             
H915  core 0.6014925 0.4159376 0.0757905 0.11250000 1.00000 0.00000             
O75   core 0.2174629 0.7687890 0.1273522 -1.1500000 1.00000 0.00000             
O75   core 0.2675487 0.7462001 0.6273522 -1.1500000 1.00000 0.00000             
O75   core 0.2537994 0.7324529 0.3726482 -1.1500000 1.00000 0.00000             
O75   core 0.2312118 0.7825365 0.8726484 -1.1500000 1.00000 0.00000             
O75   core 0.7174636 0.2462002 0.6226483 -1.1500000 1.00000 0.00000             
O75   core 0.7675485 0.2687887 0.1226484 -1.1500000 1.00000 0.00000             
O75   core 0.7312118 0.2324523 0.8773524 -1.1500000 1.00000 0.00000             
O75   core 0.7537998 0.2825374 0.3773521 -1.1500000 1.00000 0.00000             
O170  core 0.0914489 0.8498067 0.0918223 -1.0800000 1.00000 0.00000             
O170  core 0.3935630 0.6651830 0.5918229 -1.0800000 1.00000 0.00000             
O170  core 0.1335836 0.6395822 0.3571940 -1.0800000 1.00000 0.00000             
O170  core 0.3514281 0.8754068 0.8571944 -1.0800000 1.00000 0.00000             
O170  core 0.3604179 0.8664181 0.6428072 -1.0800000 1.00000 0.00000             
O170  core 0.1245931 0.6485720 0.1428066 -1.0800000 1.00000 0.00000             
O170  core 0.3348187 0.6064395 0.4081762 -1.0800000 1.00000 0.00000             
O170  core 0.1501933 0.9085501 0.9081756 -1.0800000 1.00000 0.00000             
O170  core 0.6245940 0.3664180 0.6071937 -1.0800000 1.00000 0.00000             
O170  core 0.8604182 0.1485703 0.1071952 -1.0800000 1.00000 0.00000             
O170  core 0.6501928 0.1064390 0.8418245 -1.0800000 1.00000 0.00000             
O170  core 0.8348188 0.4085506 0.3418238 -1.0800000 1.00000 0.00000             
O170  core 0.8935625 0.3498067 0.1581771 -1.0800000 1.00000 0.00000             
O170  core 0.5914494 0.1651826 0.6581771 -1.0800000 1.00000 0.00000             
O170  core 0.8514274 0.1395819 0.8928074 -1.0800000 1.00000 0.00000             
O170  core 0.6335835 0.3754077 0.3928063 -1.0800000 1.00000 0.00000             
O170  core 0.1276035 0.8189821 0.2739902 -1.0800000 1.00000 0.00000             
O170  core 0.3574074 0.6960074 0.7739907 -1.0800000 1.00000 0.00000             
O170  core 0.1769580 0.6582189 0.5395689 -1.0800000 1.00000 0.00000             
O170  core 0.3080535 0.8567705 0.0395692 -1.0800000 1.00000 0.00000             
O170  core 0.3417796 0.8230444 0.4604324 -1.0800000 1.00000 0.00000             
O170  core 0.1432306 0.6919458 0.9604316 -1.0800000 1.00000 0.00000             
O170  core 0.3039934 0.6425952 0.2260089 -1.0800000 1.00000 0.00000             
O170  core 0.1810181 0.8723934 0.7260085 -1.0800000 1.00000 0.00000             
O170  core 0.6432318 0.3230436 0.7895684 -1.0800000 1.00000 0.00000             
O170  core 0.8417794 0.1919463 0.2895695 -1.0800000 1.00000 0.00000             
O170  core 0.6810176 0.1425950 0.0239919 -1.0800000 1.00000 0.00000             
O170  core 0.8039939 0.3723944 0.5239911 -1.0800000 1.00000 0.00000             
O170  core 0.8574069 0.3189812 0.9760098 -1.0800000 1.00000 0.00000             
O170  core 0.6276047 0.1960079 0.4760096 -1.0800000 1.00000 0.00000             
O170  core 0.8080540 0.1582178 0.7104322 -1.0800000 1.00000 0.00000             
O170  core 0.6769579 0.3567709 0.2104313 -1.0800000 1.00000 0.00000             
space
  1

output frc forceconstants.frc
output shengBTE
