# 
# Keywords:
# 
opti prop conv molmec phon comp  
# 
# Options:
# 
cell
   6.823825  15.090690  15.090688  62.208826  81.373053  98.626939
fractional  1   
C923  core 0.0343719 0.4564983 0.1018911 0.89322300 1.00000 0.00000             
C902  core 0.0641894 0.9173166 0.5205198 -0.0300000 1.00000 0.00000             
C923  core 0.1362630 0.1018911 0.4416104 0.89322300 1.00000 0.00000             
C902  core 0.1468728 0.5621635 0.9173165 -0.0300000 1.00000 0.00000             
C913  core 0.1271386 0.8236006 0.5470473 1.17050000 1.00000 0.00000             
C912  core 0.1907237 0.5224059 0.0140249 -0.0405000 1.00000 0.00000             
C912  core 0.2047487 0.0140250 0.4635691 -0.0405000 1.00000 0.00000             
C913  core 0.3258139 0.4529525 0.3706480 1.17050000 1.00000 0.00000             
C912  core 0.3316821 0.5364308 0.4775941 -0.0405000 1.00000 0.00000             
C913  core 0.3035379 0.6293519 0.8236006 1.17050000 1.00000 0.00000             
C902  core 0.4152905 0.4794800 0.4378365 -0.0300000 1.00000 0.00000             
C923  core 0.4221264 0.5583895 0.5435016 0.89322300 1.00000 0.00000             
H915  core 0.1968777 0.5632727 0.4574717 0.05000000 1.00000 0.00000             
H915  core 0.3456504 0.5425282 0.0207444 0.05000000 1.00000 0.00000             
H915  core 0.3663949 0.0207445 0.4367272 0.05000000 1.00000 0.00000             
O170  core 0.0160367 0.7324229 0.6024727 -1.1300000 1.00000 0.00000             
O922  core 0.0766812 0.4207401 0.1913505 -1.7832230 1.00000 0.00000             
O170  core 0.1602976 0.4814547 0.3614840 -1.1300000 1.00000 0.00000             
O922  core 0.2680317 0.1913505 0.3879093 -1.7832230 1.00000 0.00000             
O170  core 0.3814904 0.3975271 0.3348957 -1.1300000 1.00000 0.00000             
O170  core 0.2836137 0.6651042 0.7324229 -1.1300000 1.00000 0.00000             
O922  core 0.3440590 0.6120907 0.5792597 -1.7832230 1.00000 0.00000             
O170  core 0.3211571 0.8429388 0.5185451 -1.1300000 1.00000 0.00000             
O170  core 0.5217817 0.3614840 0.1570611 -1.1300000 1.00000 0.00000             
Zn    core 0.0714464 0.5904340 0.6694544 2.00000000 1.00000 0.00000             
Zn    core 0.2590991 0.3305455 0.2598885 2.00000000 1.00000 0.00000             
Zn    core 0.5189875 0.2598884 0.4095660 2.00000000 1.00000 0.00000             
space
  2

output frc forceconstants.frc
output shengBTE
