NOTT300_0GPa                            
   1.00000000000000     
    14.8465297417826143    0.0000000000000000    0.0000000000000000
     0.0000000000000000   14.8465297417826143    0.0000000000000000
     0.0000000000000000    0.0000000000000000   11.8971311513602291
   Al   C    H    O 
     8    64    32    40
Direct
  0.1919438020942615  0.8080561829859469  0.0000000000000000
  0.3080561830331199  0.6919438170073100  0.4999999999663345
  0.1919438020942615  0.6919438170073100  0.2500000000252456
  0.3080561830331199  0.8080561829859469  0.7499999999915872
  0.6919438170073100  0.3080561830331199  0.4999999999663345
  0.8080561829859469  0.1919438020942615  0.0000000000000000
  0.6919438170073100  0.1919438020942615  0.7499999999915872
  0.8080561829859469  0.3080561830331199  0.2500000000252456
  0.0931542557829217  0.8584585812421890  0.2017927024837176
  0.4068457591301270  0.6415414187510680  0.7017926875537726
  0.1415414187308529  0.5931542409103031  0.4517926876126834
  0.3584585812893620  0.9068457591503417  0.9517926875790252
  0.4068457591301270  0.8584585812421890  0.5482073124041491
  0.0931542557829217  0.6415414187510680  0.0482072975415280
  0.3584585812893620  0.5931542409103031  0.2982073123788967
  0.1415414187308529  0.9068457591503417  0.7982073124293947
  0.5931542409103031  0.3584585812893620  0.7017926875537726
  0.9068457591503417  0.1415414187308529  0.2017927024837176
  0.6415414187510680  0.0931542557829217  0.9517926875790252
  0.8584585812421890  0.4068457591301270  0.4517926876126834
  0.9068457591503417  0.3584585812893620  0.0482072975415280
  0.5931542409103031  0.1415414187308529  0.5482073124041491
  0.8584585812421890  0.0931542557829217  0.7982073124293947
  0.6415414187510680  0.4068457591301270  0.2982073123788967
  0.0421689475134605  0.9307978316285879  0.2606134455240610
  0.4578310488003999  0.5692021683646762  0.7606134454904027
  0.0692021534516274  0.5421689512400369  0.5106134455493138
  0.4307978316083660  0.9578310487532271  0.0106134454988154
  0.4578310488003999  0.9307978316285879  0.4893865544675191
  0.0421689475134605  0.5692021683646762  0.9893865545180173
  0.4307978316083660  0.5421689512400369  0.2393865545264303
  0.0692021534516274  0.9578310487532271  0.7393865544927717
  0.5421689512400369  0.4307978316083660  0.7606134454904027
  0.9578310487532271  0.0692021534516274  0.2606134455240610
  0.5692021683646762  0.0421689475134605  0.0106134454988154
  0.9307978316285879  0.4578310488003999  0.5106134455493138
  0.9578310487532271  0.4307978316083660  0.9893865545180173
  0.5421689512400369  0.0692021534516274  0.4893865544675191
  0.9307978316285879  0.0421689475134605  0.7393865544927717
  0.5692021683646762  0.4578310488003999  0.2393865545264303
  0.0000000000000000 -0.0000000000000000  0.2011120623586227
  0.5000000000202149  0.5000000000202149  0.7011120474286776
  0.0000000000000000  0.5000000000202149  0.4511120474875885
  0.5000000000202149 -0.0000000000000000  0.9511120474539303
  0.5000000000202149 -0.0000000000000000  0.5488879525292369
  0.0000000000000000  0.5000000000202149  0.0488879376666229
  0.5000000000202149  0.5000000000202149  0.2988879525039916
  0.0000000000000000 -0.0000000000000000  0.7988879525544896
  0.0395803873292836  0.9295847792127777  0.3778436775976861
  0.4604196089171823  0.5704152207804792  0.8778436775640205
  0.0704152282403752  0.5395803612701998  0.6278436776229316
  0.4295847791925627  0.9604196387230642  0.1278436775724335
  0.4604196089171823  0.9295847792127777  0.3721563223939011
  0.0395803873292836  0.5704152207804792  0.8721563224443994
  0.4295847791925627  0.5395803612701998  0.1221563224528121
  0.0704152282403752  0.9604196387230642  0.6221563224191468
  0.5395803612701998  0.4295847791925627  0.8778436775640205
  0.9604196387230642  0.0704152282403752  0.3778436775976861
  0.5704152207804792  0.0395803873292836  0.1278436775724335
  0.9295847792127777  0.4604196089171823  0.6278436776229316
  0.9604196387230642  0.4295847791925627  0.8721563224443994
  0.5395803612701998  0.0704152282403752  0.3721563223939011
  0.9295847792127777  0.0395803873292836  0.6221563224191468
  0.5704152207804792  0.4604196089171823  0.1221563224528121
  0.0000000000000000 -0.0000000000000000  0.4381849896974313
  0.5000000000202149  0.5000000000202149  0.9381850195404892
  0.0000000000000000  0.5000000000202149  0.6881850195152365
  0.5000000000202149 -0.0000000000000000  0.1881849897563424
  0.5000000000202149 -0.0000000000000000  0.3118150102941559
  0.0000000000000000  0.5000000000202149  0.8118149804679308
  0.5000000000202149  0.5000000000202149  0.0618150102689031
  0.0000000000000000 -0.0000000000000000  0.5618149804426781
  0.3134393138767530  0.7499999999966320  0.1249999999705409
  0.1865606861434690  0.7499999999966320  0.6250000000210392
  0.2499999999764171  0.8134393138969681  0.3749999999957936
  0.2499999999764171  0.6865606860962959  0.8749999999621281
  0.8134393138969681  0.2499999999764171  0.6250000000210392
  0.6865606860962959  0.2499999999764171  0.1249999999705409
  0.7499999999966320  0.3134393138767530  0.8749999999621281
  0.7499999999966320  0.1865606861434690  0.3749999999957936
  0.0000000000000000 -0.0000000000000000  0.1092476835792375
  0.5000000000202149  0.5000000000202149  0.6092477059320737
  0.0000000000000000  0.5000000000202149  0.3592476761142613
  0.5000000000202149 -0.0000000000000000  0.8592477058731626
  0.5000000000202149 -0.0000000000000000  0.6407522941100047
  0.0000000000000000  0.5000000000202149  0.1407523239362298
  0.5000000000202149  0.5000000000202149  0.3907523238773187
  0.0000000000000000 -0.0000000000000000  0.8907522941352574
  0.0690703868659496  0.8716492626716213  0.4212582915441231
  0.4309296131542654  0.6283507373216356  0.9212582915104643
  0.1283507522616421  0.5690703570331163  0.6712582914852117
  0.3716492626514065  0.9309296429601478  0.1712582915188775
  0.4309296131542654  0.8716492626716213  0.3287417085316208
  0.0690703868659496  0.6283507373216356  0.8287417084979556
  0.3716492626514065  0.5690703570331163  0.0787417085063681
  0.1283507522616421  0.9309296429601478  0.5787417084727100
  0.5690703570331163  0.3716492626514065  0.9212582915104643
  0.9309296429601478  0.1283507522616421  0.4212582915441231
  0.6283507373216356  0.0690703868659496  0.1712582915188775
  0.8716492626716213  0.4309296131542654  0.6712582914852117
  0.9309296429601478  0.3716492626514065  0.8287417084979556
  0.5690703570331163  0.1283507522616421  0.3287417085316208
  0.8716492626716213  0.0690703868659496  0.5787417084727100
  0.6283507373216356  0.4309296131542654  0.0787417085063681
  0.2480638954228688  0.7499999999966320  0.1249999999705409
  0.2519360896371248  0.7499999999966320  0.6250000000210392
  0.2499999999764171  0.7480639103359173  0.3749999999957936
  0.2499999999764171  0.7519360896573467  0.8749999999621281
  0.7480639103359173  0.2499999999764171  0.6250000000210392
  0.7519360896573467  0.2499999999764171  0.1249999999705409
  0.7499999999966320  0.2480638954228688  0.8749999999621281
  0.7499999999966320  0.2519360896371248  0.3749999999957936
  0.1217834796652251  0.8759225922407146  0.1040427670007707
  0.3782165203549900  0.6240774077525495  0.6040427744573270
  0.1240774301052720  0.6217834796180522  0.3540427745162381
  0.3759225624348323  0.8782165203752118  0.8540427744825726
  0.3782165203549900  0.8759225922407146  0.6459572255005946
  0.1217834796652251  0.6240774077525495  0.1459572255342603
  0.3759225624348323  0.6217834796180522  0.3959572254753491
  0.1240774301052720  0.8782165203752118  0.8959572255258402
  0.6217834796180522  0.3759225624348323  0.6040427744573270
  0.8782165203752118  0.1240774301052720  0.1040427670007707
  0.6240774077525495  0.1217834796652251  0.8540427744825726
  0.8759225922407146  0.3782165203549900  0.3540427745162381
  0.8782165203752118  0.3759225624348323  0.1459572255342603
  0.6217834796180522  0.1240774301052720  0.6459572255005946
  0.8759225922407146  0.1217834796652251  0.8959572255258402
  0.6240774077525495  0.3782165203549900  0.3959572254753491
  0.1060581011236066  0.7856841116278501  0.2563115576153851
  0.3939419063093313  0.7143158883654139  0.7563115576658836
  0.2143159032380256  0.6060581235167658  0.5063115576406310
  0.2856841116750232  0.8939418764764911  0.0063115576742963
  0.3939419063093313  0.7856841116278501  0.4936884423761950
  0.1060581011236066  0.7143158883654139  0.9936884423425363
  0.2856841116750232  0.6060581235167658  0.2436884423509493
  0.2143159032380256  0.8939418764764911  0.7436884423172836
  0.6060581235167658  0.2856841116750232  0.7563115576658836
  0.8939418764764911  0.2143159032380256  0.2563115576153851
  0.7143158883654139  0.1060581011236066  0.0063115576742963
  0.7856841116278501  0.3939419063093313  0.5063115576406310
  0.8939418764764911  0.2856841116750232  0.9936884423425363
  0.6060581235167658  0.2143159032380256  0.4936884423761950
  0.7856841116278501  0.1060581011236066  0.7436884423172836
  0.7143158883654139  0.3939419063093313  0.2436884423509493
 
  0.00000000E+00  0.00000000E+00  0.00000000E+00
  0.00000000E+00  0.00000000E+00  0.00000000E+00
  0.00000000E+00  0.00000000E+00  0.00000000E+00
  0.00000000E+00  0.00000000E+00  0.00000000E+00
  0.00000000E+00  0.00000000E+00  0.00000000E+00
  0.00000000E+00  0.00000000E+00  0.00000000E+00
  0.00000000E+00  0.00000000E+00  0.00000000E+00
  0.00000000E+00  0.00000000E+00  0.00000000E+00
  0.00000000E+00  0.00000000E+00  0.00000000E+00
  0.00000000E+00  0.00000000E+00  0.00000000E+00
  0.00000000E+00  0.00000000E+00  0.00000000E+00
  0.00000000E+00  0.00000000E+00  0.00000000E+00
  0.00000000E+00  0.00000000E+00  0.00000000E+00
  0.00000000E+00  0.00000000E+00  0.00000000E+00
  0.00000000E+00  0.00000000E+00  0.00000000E+00
  0.00000000E+00  0.00000000E+00  0.00000000E+00
  0.00000000E+00  0.00000000E+00  0.00000000E+00
  0.00000000E+00  0.00000000E+00  0.00000000E+00
  0.00000000E+00  0.00000000E+00  0.00000000E+00
  0.00000000E+00  0.00000000E+00  0.00000000E+00
  0.00000000E+00  0.00000000E+00  0.00000000E+00
  0.00000000E+00  0.00000000E+00  0.00000000E+00
  0.00000000E+00  0.00000000E+00  0.00000000E+00
  0.00000000E+00  0.00000000E+00  0.00000000E+00
  0.00000000E+00  0.00000000E+00  0.00000000E+00
  0.00000000E+00  0.00000000E+00  0.00000000E+00
  0.00000000E+00  0.00000000E+00  0.00000000E+00
  0.00000000E+00  0.00000000E+00  0.00000000E+00
  0.00000000E+00  0.00000000E+00  0.00000000E+00
  0.00000000E+00  0.00000000E+00  0.00000000E+00
  0.00000000E+00  0.00000000E+00  0.00000000E+00
  0.00000000E+00  0.00000000E+00  0.00000000E+00
  0.00000000E+00  0.00000000E+00  0.00000000E+00
  0.00000000E+00  0.00000000E+00  0.00000000E+00
  0.00000000E+00  0.00000000E+00  0.00000000E+00
  0.00000000E+00  0.00000000E+00  0.00000000E+00
  0.00000000E+00  0.00000000E+00  0.00000000E+00
  0.00000000E+00  0.00000000E+00  0.00000000E+00
  0.00000000E+00  0.00000000E+00  0.00000000E+00
  0.00000000E+00  0.00000000E+00  0.00000000E+00
  0.00000000E+00  0.00000000E+00  0.00000000E+00
  0.00000000E+00  0.00000000E+00  0.00000000E+00
  0.00000000E+00  0.00000000E+00  0.00000000E+00
  0.00000000E+00  0.00000000E+00  0.00000000E+00
  0.00000000E+00  0.00000000E+00  0.00000000E+00
  0.00000000E+00  0.00000000E+00  0.00000000E+00
  0.00000000E+00  0.00000000E+00  0.00000000E+00
  0.00000000E+00  0.00000000E+00  0.00000000E+00
  0.00000000E+00  0.00000000E+00  0.00000000E+00
  0.00000000E+00  0.00000000E+00  0.00000000E+00
  0.00000000E+00  0.00000000E+00  0.00000000E+00
  0.00000000E+00  0.00000000E+00  0.00000000E+00
  0.00000000E+00  0.00000000E+00  0.00000000E+00
  0.00000000E+00  0.00000000E+00  0.00000000E+00
  0.00000000E+00  0.00000000E+00  0.00000000E+00
  0.00000000E+00  0.00000000E+00  0.00000000E+00
  0.00000000E+00  0.00000000E+00  0.00000000E+00
  0.00000000E+00  0.00000000E+00  0.00000000E+00
  0.00000000E+00  0.00000000E+00  0.00000000E+00
  0.00000000E+00  0.00000000E+00  0.00000000E+00
  0.00000000E+00  0.00000000E+00  0.00000000E+00
  0.00000000E+00  0.00000000E+00  0.00000000E+00
  0.00000000E+00  0.00000000E+00  0.00000000E+00
  0.00000000E+00  0.00000000E+00  0.00000000E+00
  0.00000000E+00  0.00000000E+00  0.00000000E+00
  0.00000000E+00  0.00000000E+00  0.00000000E+00
  0.00000000E+00  0.00000000E+00  0.00000000E+00
  0.00000000E+00  0.00000000E+00  0.00000000E+00
  0.00000000E+00  0.00000000E+00  0.00000000E+00
  0.00000000E+00  0.00000000E+00  0.00000000E+00
  0.00000000E+00  0.00000000E+00  0.00000000E+00
  0.00000000E+00  0.00000000E+00  0.00000000E+00
  0.00000000E+00  0.00000000E+00  0.00000000E+00
  0.00000000E+00  0.00000000E+00  0.00000000E+00
  0.00000000E+00  0.00000000E+00  0.00000000E+00
  0.00000000E+00  0.00000000E+00  0.00000000E+00
  0.00000000E+00  0.00000000E+00  0.00000000E+00
  0.00000000E+00  0.00000000E+00  0.00000000E+00
  0.00000000E+00  0.00000000E+00  0.00000000E+00
  0.00000000E+00  0.00000000E+00  0.00000000E+00
  0.00000000E+00  0.00000000E+00  0.00000000E+00
  0.00000000E+00  0.00000000E+00  0.00000000E+00
  0.00000000E+00  0.00000000E+00  0.00000000E+00
  0.00000000E+00  0.00000000E+00  0.00000000E+00
  0.00000000E+00  0.00000000E+00  0.00000000E+00
  0.00000000E+00  0.00000000E+00  0.00000000E+00
  0.00000000E+00  0.00000000E+00  0.00000000E+00
  0.00000000E+00  0.00000000E+00  0.00000000E+00
  0.00000000E+00  0.00000000E+00  0.00000000E+00
  0.00000000E+00  0.00000000E+00  0.00000000E+00
  0.00000000E+00  0.00000000E+00  0.00000000E+00
  0.00000000E+00  0.00000000E+00  0.00000000E+00
  0.00000000E+00  0.00000000E+00  0.00000000E+00
  0.00000000E+00  0.00000000E+00  0.00000000E+00
  0.00000000E+00  0.00000000E+00  0.00000000E+00
  0.00000000E+00  0.00000000E+00  0.00000000E+00
  0.00000000E+00  0.00000000E+00  0.00000000E+00
  0.00000000E+00  0.00000000E+00  0.00000000E+00
  0.00000000E+00  0.00000000E+00  0.00000000E+00
  0.00000000E+00  0.00000000E+00  0.00000000E+00
  0.00000000E+00  0.00000000E+00  0.00000000E+00
  0.00000000E+00  0.00000000E+00  0.00000000E+00
  0.00000000E+00  0.00000000E+00  0.00000000E+00
  0.00000000E+00  0.00000000E+00  0.00000000E+00
  0.00000000E+00  0.00000000E+00  0.00000000E+00
  0.00000000E+00  0.00000000E+00  0.00000000E+00
  0.00000000E+00  0.00000000E+00  0.00000000E+00
  0.00000000E+00  0.00000000E+00  0.00000000E+00
  0.00000000E+00  0.00000000E+00  0.00000000E+00
  0.00000000E+00  0.00000000E+00  0.00000000E+00
  0.00000000E+00  0.00000000E+00  0.00000000E+00
  0.00000000E+00  0.00000000E+00  0.00000000E+00
  0.00000000E+00  0.00000000E+00  0.00000000E+00
  0.00000000E+00  0.00000000E+00  0.00000000E+00
  0.00000000E+00  0.00000000E+00  0.00000000E+00
  0.00000000E+00  0.00000000E+00  0.00000000E+00
  0.00000000E+00  0.00000000E+00  0.00000000E+00
  0.00000000E+00  0.00000000E+00  0.00000000E+00
  0.00000000E+00  0.00000000E+00  0.00000000E+00
  0.00000000E+00  0.00000000E+00  0.00000000E+00
  0.00000000E+00  0.00000000E+00  0.00000000E+00
  0.00000000E+00  0.00000000E+00  0.00000000E+00
  0.00000000E+00  0.00000000E+00  0.00000000E+00
  0.00000000E+00  0.00000000E+00  0.00000000E+00
  0.00000000E+00  0.00000000E+00  0.00000000E+00
  0.00000000E+00  0.00000000E+00  0.00000000E+00
  0.00000000E+00  0.00000000E+00  0.00000000E+00
  0.00000000E+00  0.00000000E+00  0.00000000E+00
  0.00000000E+00  0.00000000E+00  0.00000000E+00
  0.00000000E+00  0.00000000E+00  0.00000000E+00
  0.00000000E+00  0.00000000E+00  0.00000000E+00
  0.00000000E+00  0.00000000E+00  0.00000000E+00
  0.00000000E+00  0.00000000E+00  0.00000000E+00
  0.00000000E+00  0.00000000E+00  0.00000000E+00
  0.00000000E+00  0.00000000E+00  0.00000000E+00
  0.00000000E+00  0.00000000E+00  0.00000000E+00
  0.00000000E+00  0.00000000E+00  0.00000000E+00
  0.00000000E+00  0.00000000E+00  0.00000000E+00
  0.00000000E+00  0.00000000E+00  0.00000000E+00
  0.00000000E+00  0.00000000E+00  0.00000000E+00
  0.00000000E+00  0.00000000E+00  0.00000000E+00
  0.00000000E+00  0.00000000E+00  0.00000000E+00
  0.00000000E+00  0.00000000E+00  0.00000000E+00
  0.00000000E+00  0.00000000E+00  0.00000000E+00
