MOF-650                                 
   1.00000000000000     
    30.6888527072134281    0.0012653725852508   -0.0012181239956503
     0.0012180641015818   30.6888527128309754    0.0012180641015818
    -0.0012181239956503    0.0012653725852508   30.6888527072134281
   C    H    O    Zn
   288   144   104    32
Direct
  0.7490303014515940  0.1341010410624988  0.7490303014515940
  0.2490736375829021  0.8674656353438617  0.2490736375829021
  0.2491994701579784  0.8674754083745467  0.7491994652145478
  0.7491943705098170  0.1340950616930904  0.2491943754532404
  0.2490303063950316  0.1341010410624988  0.2490303063950316
  0.7490736326394716  0.8674656353438617  0.7490736326394716
  0.7491994652145478  0.8674754083745467  0.2491994701579784
  0.2491943754532404  0.1340950616930904  0.7491943705098170
  0.7491994652145905  0.7508005199551463  0.1325246144656932
  0.2491943754531694  0.2508056196033219  0.8659049611471851
  0.7490303014515087  0.2509696886615378  0.8658989817777767
  0.2490736375829163  0.7509263525302510  0.1325343874964068
  0.2491994701580210  0.2508005248985768  0.1325246144656932
  0.7491943705097459  0.7508056146598914  0.8659049611471851
  0.2490303063949464  0.7509696837181215  0.8658989817777767
  0.7490736326394858  0.2509263574736815  0.1325343874964068
  0.1325246144656932  0.7508005199551463  0.7491994652145905
  0.8659049611471851  0.2508056196033219  0.2491943754531694
  0.8658989817777767  0.7509696837181215  0.2490303063949464
  0.1325343874964068  0.2509263574736815  0.7490736326394858
  0.1325246144656932  0.2508005248985768  0.2491994701580210
  0.8659049611471851  0.7508056146598914  0.7491943705097459
  0.8658989817777767  0.2509696886615378  0.7490303014515087
  0.1325343874964068  0.7509263525302510  0.2490736375829163
  0.7490303014515940  0.6341010033919530  0.2490303063950316
  0.2490736375829021  0.3674656402872779  0.7490736326394716
  0.2491994701579784  0.3674754133179844  0.2491994701579784
  0.7491943705098170  0.6340950240225446  0.7491943705098170
  0.2490303063950316  0.6341010033919530  0.7490303014515940
  0.7490736326394716  0.3674656402872779  0.2490736375829021
  0.7491994652145478  0.3674754133179844  0.7491994652145478
  0.2491943754532404  0.6340950240225446  0.2491943754532404
  0.7491994652145905  0.2508005248985768  0.6325245767951474
  0.2491943754531694  0.7508056146598914  0.3659049660906156
  0.7490303014515087  0.7509696837181215  0.3658989867212143
  0.2490736375829163  0.2509263574736815  0.6325343498258467
  0.2491994701580210  0.7508005199551463  0.6325245767951474
  0.7491943705097459  0.2508056196033219  0.3659049660906156
  0.2490303063949464  0.2509696886615378  0.3658989867212143
  0.7490736326394858  0.7509263525302510  0.6325343498258467
  0.6325245767951474  0.7508005199551463  0.2491994701580210
  0.3659049660906156  0.2508056196033219  0.7491943705097459
  0.3658989867212143  0.7509696837181215  0.7490303014515087
  0.6325343498258467  0.2509263574736815  0.2490736375829163
  0.6325245767951474  0.2508005248985768  0.7491994652145905
  0.3659049660906156  0.7508056146598914  0.2491943754531694
  0.3658989867212143  0.2509696886615378  0.2490303063949464
  0.6325343498258467  0.7509263525302510  0.7490736326394858
  0.7490414792016767  0.0861806680546397  0.7490414792016767
  0.2490876413850251  0.9166178980918203  0.2490876413850251
  0.2495657146507804  0.9166230349447418  0.7495657097073356
  0.7495177085659562  0.0861780694405152  0.2495177135093797
  0.2490414841451144  0.0861806680546397  0.2490414841451144
  0.7490876364416086  0.9166178980918203  0.7490876364416086
  0.7495657097073356  0.9166230349447418  0.2495657146507804
  0.2495177135093797  0.0861780694405152  0.7495177085659562
  0.7495657097073214  0.7504342754623727  0.0833769551684114
  0.2495177135092731  0.2504822815471969  0.9138219206726664
  0.7490414792015346  0.2509585109115048  0.9138193220585703
  0.2490876413849753  0.7509123487281424  0.0833820920213683
  0.2495657146507662  0.2504342804057962  0.0833769551684114
  0.7495177085658496  0.7504822766037663  0.9138219206726664
  0.2490414841449652  0.7509585059680742  0.9138193220585703
  0.7490876364415660  0.2509123536715941  0.0833820920213683
  0.0833769551684114  0.7504342754623727  0.7495657097073214
  0.9138219206726664  0.2504822815471969  0.2495177135092731
  0.9138193220585703  0.7509585059680742  0.2490414841449652
  0.0833820920213683  0.2509123536715941  0.7490876364415660
  0.0833769551684114  0.2504342804057962  0.2495657146507662
  0.9138219206726664  0.7504822766037663  0.7495177085658496
  0.9138193220585703  0.2509585109115048  0.7490414792015346
  0.0833820920213683  0.7509123487281424  0.2490876413849753
  0.7490414792016767  0.5861806303840938  0.2490414841451144
  0.2490876413850251  0.4166179357623662  0.7490876364416086
  0.2495657146507804  0.4166230726152876  0.2495657146507804
  0.7495177085659562  0.5861780317699693  0.7495177085659562
  0.2490414841451144  0.5861806303840938  0.7490414792016767
  0.7490876364416086  0.4166179357623662  0.2490876413850251
  0.7495657097073356  0.4166230726152876  0.7495657097073356
  0.2495177135093797  0.5861780317699693  0.2495177135093797
  0.7495657097073214  0.2504342804057962  0.5833769174978655
  0.2495177135092731  0.7504822766037663  0.4138219583432121
  0.7490414792015346  0.7509585059680742  0.4138193597291161
  0.2490876413849753  0.2509123536715941  0.5833820543508297
  0.2495657146507662  0.7504342754623727  0.5833769174978655
  0.7495177085658496  0.2504822815471969  0.4138219583432121
  0.2490414841449652  0.2509585109115048  0.4138193597291161
  0.7490876364415660  0.7509123487281424  0.5833820543508297
  0.5833769174978655  0.7504342754623727  0.2495657146507662
  0.4138219583432121  0.2504822815471969  0.7495177085658496
  0.4138193597291161  0.7509585059680742  0.7490414792015346
  0.5833820543508297  0.2509123536715941  0.2490876413849753
  0.5833769174978655  0.2504342804057962  0.7495657097073214
  0.4138219583432121  0.7504822766037663  0.2495177135092731
  0.4138193597291161  0.2509585109115048  0.2490414841449652
  0.5833820543508297  0.7509123487281424  0.7490876364415660
  0.7224218400247903  0.0599279759671641  0.7224218400247903
  0.2782462558459904  0.9362413473906458  0.2782462558459904
  0.2788940645802780  0.9362465868418114  0.7205778144035295
  0.7230462444933471  0.0599425078619348  0.2763023954629804
  0.2756788525539853  0.0599552801682115  0.2756788525539853
  0.7199251130600370  0.9362505347868618  0.7199251130600370
  0.7205778144035295  0.9362465868418114  0.2788940645802780
  0.2763023954629804  0.0599425078619348  0.7230462444933471
  0.7205778144034585  0.7211058928056959  0.0637534359984286
  0.2763023954629165  0.2769537128927335  0.9400575149784117
  0.7224218400246979  0.2775781173612192  0.9400720468731183
  0.2782462558459336  0.7217537015401185  0.0637586754497149
  0.2788940645802852  0.2794221429825652  0.0637534359985210
  0.7230462444931623  0.7236975619229722  0.9400575149782909
  0.2756788525537650  0.7243211048321236  0.9400447426721918
  0.7199251130600157  0.2800748443259581  0.0637494880534206
  0.0637534359984286  0.7211058928056959  0.7205778144034585
  0.9400575149784117  0.2769537128927335  0.2763023954629165
  0.9400447426721918  0.7243211048321236  0.2756788525537650
  0.0637494880534206  0.2800748443259581  0.7199251130600157
  0.0637534359985210  0.2794221429825652  0.2788940645802852
  0.9400575149782909  0.7236975619229722  0.7230462444931623
  0.9400720468731183  0.2775781173612192  0.7224218400246979
  0.0637586754497149  0.7217537015401185  0.2782462558459336
  0.7224218400247903  0.5599280037508489  0.2224218776953431
  0.2782462558459904  0.4362413196069683  0.7782462836296822
  0.2788940645802780  0.4362465590581195  0.2205778520740753
  0.7230462444933471  0.5599425356456408  0.7763024232466722
  0.2756788525539853  0.5599553079519104  0.7756788803376842
  0.7199251130600370  0.4362505070031701  0.2199251507306184
  0.7205778144035295  0.4362465590581195  0.7788940923639840
  0.2763023954629804  0.5599425356456408  0.2230462821638999
  0.7205778144034585  0.2211059304762559  0.5637534637821203
  0.2763023954629165  0.7769537406764323  0.4400574871947200
  0.7224218400246979  0.7775781451449110  0.4400720190894266
  0.2782462558459336  0.2217537392106714  0.5637587032334138
  0.2788940645802852  0.7794221707662499  0.5637534637822127
  0.7230462444931623  0.2236975995935180  0.4400574871945992
  0.2756788525537650  0.2243211425026908  0.4400447148885001
  0.7199251130600157  0.7800748721096713  0.5637495158371054
  0.0637534359984286  0.2211059304762559  0.2205778520739972
  0.9400575149784117  0.7769537406764323  0.7763024232466011
  0.9400447426721918  0.2243211425026908  0.7756788803374639
  0.0637494880534206  0.7800748721096713  0.2199251507305971
  0.0637534359985210  0.7794221707662499  0.7788940923639911
  0.9400575149782909  0.2236975995935180  0.2230462821637152
  0.9400720468731183  0.7775781451449110  0.2224218776952507
  0.0637586754497149  0.2217537392106714  0.7782462836296253
  0.2224218776953431  0.0599279759671641  0.2224218776953431
  0.7782462836296822  0.9362413473906458  0.7782462836296822
  0.7788940923639840  0.9362465868418114  0.2205778520740753
  0.2230462821638999  0.0599425078619348  0.7763024232466722
  0.7756788803376842  0.0599552801682115  0.7756788803376842
  0.2199251507306184  0.9362505347868618  0.2199251507306184
  0.2205778520740753  0.9362465868418114  0.7788940923639840
  0.7763024232466722  0.0599425078619348  0.2230462821638999
  0.2205778520739972  0.7211058928056959  0.5637534637821203
  0.7763024232466011  0.2769537128927335  0.4400574871947200
  0.2224218776952507  0.2775781173612192  0.4400720190894266
  0.7782462836296253  0.7217537015401185  0.5637587032334138
  0.7788940923639911  0.2794221429825652  0.5637534637822127
  0.2230462821637152  0.7236975619229722  0.4400574871945992
  0.7756788803374639  0.7243211048321236  0.4400447148885001
  0.2199251507305971  0.2800748443259581  0.5637495158371054
  0.5637534637821203  0.7211058928056959  0.2205778520739972
  0.4400574871947200  0.2769537128927335  0.7763024232466011
  0.4400447148885001  0.7243211048321236  0.7756788803374639
  0.5637495158371054  0.2800748443259581  0.2199251507305971
  0.5637534637822127  0.2794221429825652  0.7788940923639911
  0.4400574871945992  0.7236975619229722  0.2230462821637152
  0.4400720190894266  0.2775781173612192  0.2224218776952507
  0.5637587032334138  0.7217537015401185  0.7782462836296253
  0.2224218776953431  0.5599280037508489  0.7224218400247903
  0.7782462836296822  0.4362413196069683  0.2782462558459904
  0.7788940923639840  0.4362465590581195  0.7205778144035295
  0.2230462821638999  0.5599425356456408  0.2763023954629804
  0.7756788803376842  0.5599553079519104  0.2756788525539853
  0.2199251507306184  0.4362505070031701  0.7199251130600370
  0.2205778520740753  0.4362465590581195  0.2788940645802780
  0.7763024232466722  0.5599425356456408  0.7230462444933471
  0.2205778520739972  0.2211059304762559  0.0637534359984286
  0.7763024232466011  0.7769537406764323  0.9400575149784117
  0.2224218776952507  0.7775781451449110  0.9400720468731183
  0.7782462836296253  0.2217537392106714  0.0637586754497149
  0.7788940923639911  0.7794221707662499  0.0637534359985210
  0.2230462821637152  0.2236975995935180  0.9400575149782909
  0.7756788803374639  0.2243211425026908  0.9400447426721918
  0.2199251507305971  0.7800748721096713  0.0637494880534206
  0.5637534637821203  0.2211059304762559  0.7205778144034585
  0.4400574871947200  0.7769537406764323  0.2763023954629165
  0.4400447148885001  0.2243211425026908  0.2756788525537650
  0.5637495158371054  0.7800748721096713  0.7199251130600157
  0.5637534637822127  0.7794221707662499  0.2788940645802852
  0.4400574871945992  0.2236975995935180  0.7230462444931623
  0.4400720190894266  0.7775781451449110  0.7224218400246979
  0.5637587032334138  0.2217537392106714  0.2782462558459336
  0.7318291851074948  0.0163302425480818  0.7318291851074948
  0.7325893654027893  0.0163367759576303  0.2670617972535828
  0.2663004715784474  0.0163393553843626  0.2663004715784474
  0.2670617972535828  0.0163367759576303  0.7325893654027893
  0.2670617972534904  0.2674106901646084  0.9836632796098101
  0.7318291851073740  0.2681708704599101  0.9836698130193586
  0.7325893654026543  0.7329382583137938  0.9836632796097604
  0.2663004715783124  0.7336995839889789  0.9836607001830991
  0.9836632796098101  0.2674106901646084  0.2670617972534904
  0.9836607001830991  0.7336995839889789  0.2663004715783124
  0.9836632796097604  0.7329382583137938  0.7325893654026543
  0.9836698130193586  0.2681708704599101  0.7318291851073740
  0.7318291851074948  0.5163302376046655  0.2318291573238172
  0.7325893654027893  0.5163367710142139  0.7670617923101379
  0.2663004715784474  0.5163393504409391  0.7663004666350167
  0.2670617972535828  0.5163367710142139  0.2325893376191118
  0.2670617972534904  0.7674106852211922  0.4836632190990031
  0.7318291851073740  0.7681708655164795  0.4836697525085588
  0.7325893654026543  0.2329382305300948  0.4836632190989534
  0.2663004715783124  0.2336995562052942  0.4836606396722850
  0.9836632796098101  0.7674106852211922  0.7670617923100456
  0.9836607001830991  0.2336995562052942  0.7663004666348817
  0.9836632796097604  0.2329382305300948  0.2325893376189768
  0.9836698130193586  0.7681708655164795  0.2318291573236964
  0.2318291573238172  0.0163302425480818  0.2318291573238172
  0.2325893376191118  0.0163367759576303  0.7670617923101379
  0.7663004666350167  0.0163393553843626  0.7663004666350167
  0.7670617923101379  0.0163367759576303  0.2325893376191118
  0.7670617923100456  0.2674106901646084  0.4836632190990031
  0.2318291573236964  0.2681708704599101  0.4836697525085588
  0.2325893376189768  0.7329382583137938  0.4836632190989534
  0.7663004666348817  0.7336995839889789  0.4836606396722850
  0.4836632190990031  0.2674106901646084  0.7670617923100456
  0.4836606396722850  0.7336995839889789  0.7663004666348817
  0.4836632190989534  0.7329382583137938  0.2325893376189768
  0.4836697525085588  0.2681708704599101  0.2318291573236964
  0.2318291573238172  0.5163302376046655  0.7318291851074948
  0.2325893376191118  0.5163367710142139  0.2670617972535828
  0.7663004666350167  0.5163393504409391  0.2663004715784474
  0.7670617923101379  0.5163367710142139  0.7325893654027893
  0.7670617923100456  0.7674106852211922  0.9836632796098101
  0.2318291573236964  0.7681708655164795  0.9836698130193586
  0.2325893376189768  0.2329382305300948  0.9836632796097604
  0.7663004666348817  0.2336995562052942  0.9836607001830991
  0.4836632190990031  0.7674106852211922  0.2670617972534904
  0.4836606396722850  0.2336995562052942  0.2663004715783124
  0.4836632190989534  0.2329382305300948  0.7325893654026543
  0.4836697525085588  0.7681708655164795  0.7318291851073740
  0.7123861866151600  0.9803245095921794  0.7123861866151600
  0.7132027805244693  0.9803292854712716  0.2865751315925649
  0.2857638360060650  0.9803342801018385  0.2857638360060650
  0.2865751315925649  0.9803292854712716  0.7132027805244693
  0.2865751315925222  0.2867972095887123  0.0196707373690749
  0.7123861866150747  0.2876138034980217  0.0196755132481387
  0.7132027805243698  0.7134248585205456  0.0196707373690110
  0.2857638360059797  0.7142361541071449  0.0196657427385293
  0.0196707373690749  0.2867972095887123  0.2865751315925222
  0.0196657427385293  0.7142361541071449  0.2857638360059797
  0.0196707373690110  0.7134248585205456  0.7132027805243698
  0.0196755132481387  0.2876138034980217  0.7123861866150747
  0.7123861866151600  0.4803244818085019  0.2123862242857057
  0.7132027805244693  0.4803292576875727  0.7865751266491485
  0.2857638360060650  0.4803342523181396  0.7857638310626274
  0.2865751315925649  0.4803292576875727  0.2132028181950150
  0.2865751315925222  0.7867972046452817  0.5196707324256301
  0.7123861866150747  0.7876137985545910  0.5196755083047152
  0.7132027805243698  0.2134248961910985  0.5196707324255662
  0.2857638360059797  0.2142361917776836  0.5196657377950774
  0.0196707373690749  0.7867972046452817  0.7865751266491059
  0.0196657427385293  0.2142361917776836  0.7857638310625421
  0.0196707373690110  0.2134248961910985  0.2132028181949155
  0.0196755132481387  0.7876137985545910  0.2123862242856204
  0.2123862242857057  0.9803245095921794  0.2123862242857057
  0.2132028181950150  0.9803292854712716  0.7865751266491485
  0.7857638310626274  0.9803342801018385  0.7857638310626274
  0.7865751266491485  0.9803292854712716  0.2132028181950150
  0.7865751266491059  0.2867972095887123  0.5196707324256301
  0.2123862242856204  0.2876138034980217  0.5196755083047152
  0.2132028181949155  0.7134248585205456  0.5196707324255662
  0.7857638310625421  0.7142361541071449  0.5196657377950774
  0.5196707324256301  0.2867972095887123  0.7865751266491059
  0.5196657377950774  0.7142361541071449  0.7857638310625421
  0.5196707324255662  0.7134248585205456  0.2132028181949155
  0.5196755083047152  0.2876138034980217  0.2123862242856204
  0.2123862242857057  0.4803244818085019  0.7123861866151600
  0.2132028181950150  0.4803292576875727  0.2865751315925649
  0.7857638310626274  0.4803342523181396  0.2857638360060650
  0.7865751266491485  0.4803292576875727  0.7132027805244693
  0.7865751266491059  0.7867972046452817  0.0196707373690749
  0.2123862242856204  0.7876137985545910  0.0196755132481387
  0.2132028181949155  0.2134248961910985  0.0196707373690110
  0.7857638310625421  0.2142361917776836  0.0196657427385293
  0.5196707324256301  0.7867972046452817  0.2865751315925222
  0.5196657377950774  0.2142361917776836  0.2857638360059797
  0.5196707324255662  0.2134248961910985  0.7132027805243698
  0.5196755083047152  0.7876137985545910  0.7123861866150747
  0.6987757861398041  0.0718964511211227  0.6987757861398041
  0.2974759616224951  0.9131732398957527  0.2974759616224951
  0.2980854162235285  0.9131779085738347  0.7013189658109825
  0.6993839982867052  0.0719357619585722  0.2999131177426525
  0.2993124823485739  0.0719690753454640  0.2993124823485739
  0.7006988660662847  0.9131895102723407  0.7006988660662847
  0.7013189658109825  0.9131779085738347  0.2980854162235285
  0.2999131177426525  0.0719357619585722  0.6993839982867052
  0.7013189658107907  0.7019145738894826  0.0868220815392260
  0.2999131177425672  0.3006159918265687  0.9280642281547017
  0.6987757861397614  0.3012242039732851  0.9281035389919735
  0.2974759616223316  0.7025240284907931  0.0868267502175922
  0.2980854162235711  0.2986810243022984  0.0868220815394463
  0.6993839982864423  0.7000868723703798  0.9280642281545169
  0.2993124823483039  0.7006875077646929  0.9280309147678668
  0.7006988660662776  0.2993011240467833  0.0868104798407342
  0.0868220815392260  0.7019145738894826  0.7013189658107907
  0.9280642281547017  0.3006159918265687  0.2999131177425672
  0.9280309147678668  0.7006875077646929  0.2993124823483039
  0.0868104798407342  0.2993011240467833  0.7006988660662776
  0.0868220815394463  0.2986810243022984  0.2980854162235711
  0.9280642281545169  0.7000868723703798  0.6993839982864423
  0.9281035389919735  0.3012242039732851  0.6987757861397614
  0.0868267502175922  0.7025240284907931  0.2974759616223316
  0.6987757861398041  0.5718965116319298  0.1987757910832204
  0.2974759616224951  0.4131732448391833  0.7974759239519421
  0.2980854162235285  0.4131779135172652  0.2013189707544202
  0.6993839982867052  0.5719358224693792  0.7999130800721067
  0.2993124823485739  0.5719691358562781  0.7993124446780210
  0.7006988660662847  0.4131895152157784  0.2006988710097081
  0.7013189658109825  0.4131779135172652  0.7980853785529826
  0.2999131177426525  0.5719358224693792  0.1993840032301286
  0.7013189658107907  0.2019145788329131  0.5868221420500330
  0.2999131177425672  0.8006159541560087  0.4280642330981393
  0.6987757861397614  0.8012241663027251  0.4281035439354183
  0.2974759616223316  0.2025240334342165  0.5868268107283851
  0.2980854162235711  0.7986809866317527  0.5868221420502533
  0.6993839982864423  0.2000868773138175  0.4280642330979546
  0.2993124823483039  0.2006875127081306  0.4280309197113115
  0.7006988660662776  0.7993010863762231  0.5868105403515412
  0.0868220815392260  0.2019145788329131  0.2013189707542284
  0.9280642281547017  0.8006159541560087  0.7999130800720214
  0.9280309147678668  0.2006875127081306  0.7993124446777510
  0.0868104798407342  0.7993010863762231  0.2006988710097010
  0.0868220815394463  0.7986809866317527  0.7980853785530181
  0.9280642281545169  0.2000868773138175  0.1993840032298657
  0.9281035389919735  0.8012241663027251  0.1987757910831849
  0.0868267502175922  0.2025240334342165  0.7974759239517787
  0.1987757910832204  0.0718964511211227  0.1987757910832204
  0.7974759239519421  0.9131732398957527  0.7974759239519421
  0.7980853785529826  0.9131779085738347  0.2013189707544202
  0.1993840032301286  0.0719357619585722  0.7999130800721067
  0.7993124446780210  0.0719690753454640  0.7993124446780210
  0.2006988710097081  0.9131895102723407  0.2006988710097081
  0.2013189707544202  0.9131779085738347  0.7980853785529826
  0.7999130800721067  0.0719357619585722  0.1993840032301286
  0.2013189707542284  0.7019145738894826  0.5868221420500330
  0.7999130800720214  0.3006159918265687  0.4280642330981393
  0.1987757910831849  0.3012242039732851  0.4281035439354183
  0.7974759239517787  0.7025240284907931  0.5868268107283851
  0.7980853785530181  0.2986810243022984  0.5868221420502533
  0.1993840032298657  0.7000868723703798  0.4280642330979546
  0.7993124446777510  0.7006875077646929  0.4280309197113115
  0.2006988710097010  0.2993011240467833  0.5868105403515412
  0.5868221420500330  0.7019145738894826  0.2013189707542284
  0.4280642330981393  0.3006159918265687  0.7999130800720214
  0.4280309197113115  0.7006875077646929  0.7993124446777510
  0.5868105403515412  0.2993011240467833  0.2006988710097010
  0.5868221420502533  0.2986810243022984  0.7980853785530181
  0.4280642330979546  0.7000868723703798  0.1993840032298657
  0.4281035439354183  0.3012242039732851  0.1987757910831849
  0.5868268107283851  0.7025240284907931  0.7974759239517787
  0.1987757910832204  0.5718965116319298  0.6987757861398041
  0.7974759239519421  0.4131732448391833  0.2974759616224951
  0.7980853785529826  0.4131779135172652  0.7013189658109825
  0.1993840032301286  0.5719358224693792  0.2999131177426525
  0.7993124446780210  0.5719691358562781  0.2993124823485739
  0.2006988710097081  0.4131895152157784  0.7006988660662847
  0.2013189707544202  0.4131779135172652  0.2980854162235285
  0.7999130800721067  0.5719358224693792  0.6993839982867052
  0.2013189707542284  0.2019145788329131  0.0868220815392260
  0.7999130800720214  0.8006159541560087  0.9280642281547017
  0.1987757910831849  0.8012241663027251  0.9281035389919735
  0.7974759239517787  0.2025240334342165  0.0868267502175922
  0.7980853785530181  0.7986809866317527  0.0868220815394463
  0.1993840032298657  0.2000868773138175  0.9280642281545169
  0.7993124446777510  0.2006875127081306  0.9280309147678668
  0.2006988710097010  0.7993010863762231  0.0868104798407342
  0.5868221420500330  0.2019145788329131  0.7013189658107907
  0.4280642330981393  0.8006159541560087  0.2999131177425672
  0.4280309197113115  0.2006875127081306  0.2993124823483039
  0.5868105403515412  0.7993010863762231  0.7006988660662776
  0.5868221420502533  0.7986809866317527  0.2980854162235711
  0.4280642330979546  0.2000868773138175  0.6993839982864423
  0.4281035439354183  0.8012241663027251  0.6987757861397614
  0.5868268107283851  0.2025240334342165  0.2974759616223316
  0.6876546476756937  0.9879174687849712  0.6876546476756937
  0.6885717615628920  0.9879325836875060  0.3113989888556342
  0.3104913325825850  0.9879394576578118  0.3104913325825850
  0.3113989888556342  0.9879325836875060  0.6885717615628920
  0.3113989888555489  0.3114282285502964  0.0120674064256897
  0.6876546476755161  0.3123453424375020  0.0120825213282458
  0.6885717615627286  0.6886010012574622  0.0120674064256187
  0.3104913325824642  0.6895086575306109  0.0120605324554124
  0.0120674064256897  0.3114282285502964  0.3113989888555489
  0.0120605324554124  0.6895086575306109  0.3104913325824642
  0.0120674064256187  0.6886010012574622  0.6885717615627286
  0.0120825213282458  0.3123453424375020  0.6876546476755161
  0.6876546476756937  0.4879174737284018  0.1876546526191101
  0.6885717615628920  0.4879325886309366  0.8113989511850883
  0.3104913325825850  0.4879394626012423  0.8104912949120320
  0.3113989888556342  0.4879325886309366  0.1885717665063227
  0.3113989888555489  0.8114281908797366  0.5120674014822592
  0.6876546476755161  0.8123453047669420  0.5120825163848153
  0.6885717615627286  0.1886010062008998  0.5120674014821881
  0.3104913325824642  0.1895086624740413  0.5120605275119818
  0.0120674064256897  0.8114281908797366  0.8113989511850030
  0.0120605324554124  0.1895086624740413  0.8104912949119183
  0.0120674064256187  0.1886010062008998  0.1885717665061593
  0.0120825213282458  0.8123453047669420  0.1876546526189325
  0.1876546526191101  0.9879174687849712  0.1876546526191101
  0.1885717665063227  0.9879325836875060  0.8113989511850883
  0.8104912949120320  0.9879394576578118  0.8104912949120320
  0.8113989511850883  0.9879325836875060  0.1885717665063227
  0.8113989511850030  0.3114282285502964  0.5120674014822592
  0.1876546526189325  0.3123453424375020  0.5120825163848153
  0.1885717665061593  0.6886010012574622  0.5120674014821881
  0.8104912949119183  0.6895086575306109  0.5120605275119818
  0.5120674014822592  0.3114282285502964  0.8113989511850030
  0.5120605275119818  0.6895086575306109  0.8104912949119183
  0.5120674014821881  0.6886010012574622  0.1885717665061593
  0.5120825163848153  0.3123453424375020  0.1876546526189325
  0.1876546526191101  0.4879174737284018  0.6876546476756937
  0.1885717665063227  0.4879325886309366  0.3113989888556342
  0.8104912949120320  0.4879394626012423  0.3104913325825850
  0.8113989511850883  0.4879325886309366  0.6885717615628920
  0.8113989511850030  0.8114281908797366  0.0120674064256897
  0.1876546526189325  0.8123453047669420  0.0120825213282458
  0.1885717665061593  0.1886010062008998  0.0120674064256187
  0.8104912949119183  0.1895086624740413  0.0120605324554124
  0.5120674014822592  0.8114281908797366  0.3113989888555489
  0.5120605275119818  0.1895086624740413  0.3104913325824642
  0.5120674014821881  0.1886010062008998  0.6885717615627286
  0.5120825163848153  0.8123453047669420  0.6876546476755161
  0.2492651277670005  0.7507348623461243  0.7492651228235698
  0.7492283758469843  0.2507716142660126  0.2492283807904361
  0.7492651228235698  0.2507348672895548  0.7492651228235698
  0.2492283807904361  0.7507716093225961  0.2492283807904361
  0.7492651228235698  0.7507348623461243  0.2492651277670005
  0.2492283807904361  0.2507716142660126  0.7492283758469843
  0.2492651277670005  0.2507348672895548  0.2492651277670005
  0.7492283758469843  0.7507716093225961  0.7492283758469843
  0.7227458204728964  0.1527725885216931  0.7227458204728964
  0.2750933014296491  0.8485171152772615  0.2750933014296491
  0.2751136292015769  0.8485913706062225  0.7229684639204474
  0.7228283336498734  0.1528205449207499  0.2752821927974441
  0.2752052511186475  0.1528827767573718  0.2752052511186475
  0.7229430862137342  0.8486460375753252  0.7229430862137342
  0.7229684639204474  0.8485913706062225  0.2751136292015769
  0.2752821927974441  0.1528205449207499  0.7228283336498734
  0.7229684639204617  0.7248863281844183  0.1514086195069093
  0.2752821927974655  0.2771716237361858  0.8471794451924317
  0.7227458204728822  0.2772541369131202  0.8472274015914243
  0.2750933014296704  0.7249066559564101  0.1514828748359058
  0.2751136292016409  0.2770314934655906  0.1514086195069662
  0.7228283336497953  0.7247177645885013  0.8471794451923322
  0.2752052511185338  0.7247947062673975  0.8471172133558168
  0.7229430862137555  0.2770568711722539  0.1513539525377994
  0.1514086195069093  0.7248863281844183  0.7229684639204617
  0.8471794451924317  0.2771716237361858  0.2752821927974655
  0.8471172133558168  0.7247947062673975  0.2752052511185338
  0.1513539525377994  0.2770568711722539  0.7229430862137555
  0.1514086195069662  0.2770314934655906  0.2751136292016409
  0.8471794451923322  0.7247177645885013  0.7228283336497953
  0.8472274015914243  0.2772541369131202  0.7227458204728822
  0.1514828748359058  0.7249066559564101  0.2750933014296704
  0.7227458204728964  0.6527726490325003  0.2227458581434279
  0.2750933014296491  0.3485171202206991  0.7750932964862114
  0.2751136292015769  0.3485913755496388  0.2229685015910144
  0.7228283336498734  0.6528206054315639  0.7752821878540207
  0.2752052511186475  0.6528828372681860  0.7752052461752240
  0.7229430862137342  0.3486460425187416  0.2229431238842800
  0.7229684639204474  0.3485913755496388  0.7751136242581392
  0.2752821927974441  0.6528206054315639  0.2228283713204263
  0.7229684639204617  0.2248863658549569  0.6514086800177092
  0.2752821927974655  0.7771716187927623  0.3471794501358693
  0.7227458204728822  0.7772541319696754  0.3472274065348550
  0.2750933014296704  0.2249066936269559  0.6514829353467200
  0.2751136292016409  0.7770314885221670  0.6514086800177661
  0.7228283336497953  0.2247178022590471  0.3471794501357698
  0.2752052511185338  0.2247947439379433  0.3471172182992545
  0.7229430862137555  0.7770568662288234  0.6513540130485994
  0.1514086195069093  0.2248863658549569  0.2229685015910215
  0.8471794451924317  0.7771716187927623  0.7752821878540349
  0.8471172133558168  0.2247947439379433  0.7752052461751103
  0.1513539525377994  0.7770568662288234  0.2229431238843013
  0.1514086195069662  0.7770314885221670  0.7751136242582032
  0.8471794451923322  0.2247178022590471  0.2228283713203481