NOTT300_0GPa                            
   1.00000000000000     
    14.9345297417826135    0.0000000000000000    0.0000000000000000
     0.0000000000000000   14.9345297417826135    0.0000000000000000
     0.0000000000000000    0.0000000000000000   11.9851311513602283
   Al   C    H    O 
     8    64    32    40
Direct
  0.1916985295736025  0.8083014555066060  0.0000000000000000
  0.3083014555537789  0.6916985444866509  0.4999999999663345
  0.1916985295736025  0.6916985444866509  0.2500000000252456
  0.3083014555537789  0.8083014555066060  0.7499999999915872
  0.6916985444866509  0.3083014555537789  0.4999999999663345
  0.8083014555066060  0.1916985295736025  0.0000000000000000
  0.6916985444866509  0.1916985295736025  0.7499999999915872
  0.8083014555066060  0.3083014555537789  0.2500000000252456
  0.0934165555244823  0.8587198230848656  0.2025506121770468
  0.4065834593885662  0.6412801769083913  0.7025505972471014
  0.1412801768881763  0.5934165406518638  0.4525505973060125
  0.3587198231320387  0.9065834594087810  0.9525505972723541
  0.4065834593885662  0.8587198230848656  0.5474494027108202
  0.0934165555244823  0.6412801769083913  0.0474493878481988
  0.3587198231320387  0.5934165406518638  0.2974494026855676
  0.1412801768881763  0.9065834594087810  0.7974494027360658
  0.5934165406518638  0.3587198231320387  0.7025505972471014
  0.9065834594087810  0.1412801768881763  0.2025506121770468
  0.6412801769083913  0.0934165555244823  0.9525505972723541
  0.8587198230848656  0.4065834593885662  0.4525505973060125
  0.9065834594087810  0.3587198231320387  0.0474493878481988
  0.5934165406518638  0.1412801768881763  0.5474494027108202
  0.8587198230848656  0.0934165555244823  0.7974494027360658
  0.6412801769083913  0.4065834593885662  0.2974494026855676
  0.0426564945317456  0.9312791799437729  0.2612761982368517
  0.4573435017821149  0.5687208200494912  0.7612761982031935
  0.0687208051364356  0.5426564982583222  0.5112761982621046
  0.4312791799235577  0.9573435017349419  0.0112761982116062
  0.4573435017821149  0.9312791799437729  0.4887238017547283
  0.0426564945317456  0.5687208200494912  0.9887238018052265
  0.4312791799235577  0.5426564982583222  0.2387238018136393
  0.0687208051364356  0.9573435017349419  0.7387238017799809
  0.5426564982583222  0.4312791799235577  0.7612761982031935
  0.9573435017349419  0.0687208051364356  0.2612761982368517
  0.5687208200494912  0.0426564945317456  0.0112761982116062
  0.9312791799437729  0.4573435017821149  0.5112761982621046
  0.9573435017349419  0.4312791799235577  0.9887238018052265
  0.5426564982583222  0.0687208051364356  0.4887238017547283
  0.9312791799437729  0.0426564945317456  0.7387238017799809
  0.5687208200494912  0.4573435017821149  0.2387238018136393
  0.0000000000000000  0.0000000000000000  0.2023782144775639
  0.5000000000202149  0.5000000000202149  0.7023781995476185
  0.0000000000000000  0.5000000000202149  0.4523781996065297
  0.5000000000202149  0.0000000000000000  0.9523781995728712
  0.5000000000202149  0.0000000000000000  0.5476218004102961
  0.0000000000000000  0.5000000000202149  0.0476217855476817
  0.5000000000202149  0.5000000000202149  0.2976218003850504
  0.0000000000000000  0.0000000000000000  0.7976218004355488
  0.0400736939435246  0.9303934718769125  0.3779138037750504
  0.4599263023029410  0.5696065281163445  0.8779138037413848
  0.0696065355762402  0.5400736678844404  0.6279138038002959
  0.4303934718566976  0.9599263321088236  0.1279138037497977
  0.4599263023029410  0.9303934718769125  0.3720861962165368
  0.0400736939435246  0.5696065281163445  0.8720861962670351
  0.4303934718566976  0.5400736678844404  0.1220861962754479
  0.0696065355762402  0.9599263321088236  0.6220861962417824
  0.5400736678844404  0.4303934718566976  0.8779138037413848
  0.9599263321088236  0.0696065355762402  0.3779138037750504
  0.5696065281163445  0.0400736939435246  0.1279138037497977
  0.9303934718769125  0.4599263023029410  0.6279138038002959
  0.9599263321088236  0.4303934718566976  0.8720861962670351
  0.5400736678844404  0.0696065355762402  0.3720861962165368
  0.9303934718769125  0.0400736939435246  0.6220861962417824
  0.5696065281163445  0.4599263023029410  0.1220861962754479
  0.0000000000000000  0.0000000000000000  0.4382791997373352
  0.5000000000202149  0.5000000000202149  0.9382792295803929
  0.0000000000000000  0.5000000000202149  0.6882792295551402
  0.5000000000202149  0.0000000000000000  0.1882791997962462
  0.5000000000202149  0.0000000000000000  0.3117208002542520
  0.0000000000000000  0.5000000000202149  0.8117207704280270
  0.5000000000202149  0.5000000000202149  0.0617208002289994
  0.0000000000000000  0.0000000000000000  0.5617207704027743
  0.3115350704468596  0.7499999999966320  0.1249999999705409
  0.1884649295733624  0.7499999999966320  0.6250000000210392
  0.2499999999764171  0.8115350704670744  0.3749999999957936
  0.2499999999764171  0.6884649295261897  0.8749999999621281
  0.8115350704670744  0.2499999999764171  0.6250000000210392
  0.6884649295261897  0.2499999999764171  0.1249999999705409
  0.7499999999966320  0.3115350704468596  0.8749999999621281
  0.7499999999966320  0.1884649295733624  0.3749999999957936
  0.0000000000000000  0.0000000000000000  0.1111562283832984
  0.5000000000202149  0.5000000000202149  0.6111562507361344
  0.0000000000000000  0.5000000000202149  0.3611562209183223
  0.5000000000202149  0.0000000000000000  0.8611562506772233
  0.5000000000202149  0.0000000000000000  0.6388437493059439
  0.0000000000000000  0.5000000000202149  0.1388437791321690
  0.5000000000202149  0.5000000000202149  0.3888437790732577
  0.0000000000000000  0.0000000000000000  0.8888437493311966
  0.0699485397177739  0.8730712754329625  0.4210139791954393
  0.4300514603024411  0.6269287245602945  0.9210139791617805
  0.1269287395003008  0.5699485098849407  0.6710139791365278
  0.3730712754127479  0.9300514901083233  0.1710139791701936
  0.4300514603024411  0.8730712754329625  0.3289860208803046
  0.0699485397177739  0.6269287245602945  0.8289860208466394
  0.3730712754127479  0.5699485098849407  0.0789860208550520
  0.1269287395003008  0.9300514901083233  0.5789860208213938
  0.5699485098849407  0.3730712754127479  0.9210139791617805
  0.9300514901083233  0.1269287395003008  0.4210139791954393
  0.6269287245602945  0.0699485397177739  0.1710139791701936
  0.8730712754329625  0.4300514603024411  0.6710139791365278
  0.9300514901083233  0.3730712754127479  0.8289860208466394
  0.5699485098849407  0.1269287395003008  0.3289860208803046
  0.8730712754329625  0.0699485397177739  0.5789860208213938
  0.6269287245602945  0.4300514603024411  0.0789860208550520
  0.2465234627860947  0.7499999999966320  0.1249999999705409
  0.2534765222738988  0.7499999999966320  0.6250000000210392
  0.2499999999764171  0.7465234776991503  0.3749999999957936
  0.2499999999764171  0.7534765222941138  0.8749999999621281
  0.7465234776991503  0.2499999999764171  0.6250000000210392
  0.7534765222941138  0.2499999999764171  0.1249999999705409
  0.7499999999966320  0.2465234627860947  0.8749999999621281
  0.7499999999966320  0.2534765222738988  0.3749999999957936
  0.1204005347686249  0.8748146199541712  0.1043135615976689
  0.3795994652515900  0.6251853800390929  0.6043135690542253
  0.1251854023918153  0.6204005347214523  0.3543135691131363
  0.3748145901482888  0.8795994652718118  0.8543135690794709
  0.3795994652515900  0.8748146199541712  0.6456864309036964
  0.1204005347686249  0.6251853800390929  0.1456864309373620
  0.3748145901482888  0.6204005347214523  0.3956864308784509
  0.1251854023918153  0.8795994652718118  0.8956864309289420
  0.6204005347214523  0.3748145901482888  0.6043135690542253
  0.8795994652718118  0.1251854023918153  0.1043135615976689
  0.6251853800390929  0.1204005347686249  0.8543135690794709
  0.8748146199541712  0.3795994652515900  0.3543135691131363
  0.8795994652718118  0.3748145901482888  0.1456864309373620
  0.6204005347214523  0.1251854023918153  0.6456864309036964
  0.8748146199541712  0.1204005347686249  0.8956864309289420
  0.6251853800390929  0.3795994652515900  0.3956864308784509
  0.1074085132094925  0.7869571741025780  0.2576709571101515
  0.3925914942234454  0.7130428258906860  0.7576709571606499
  0.2130428407632974  0.6074085356026517  0.5076709571353972
  0.2869571741497513  0.8925914643906052  0.0076709571690628
  0.3925914942234454  0.7869571741025780  0.4923290428814286
  0.1074085132094925  0.7130428258906860  0.9923290428477700
  0.2869571741497513  0.6074085356026517  0.2423290428561827
  0.2130428407632974  0.8925914643906052  0.7423290428225173
  0.6074085356026517  0.2869571741497513  0.7576709571606499
  0.8925914643906052  0.2130428407632974  0.2576709571101515
  0.7130428258906860  0.1074085132094925  0.0076709571690628
  0.7869571741025780  0.3925914942234454  0.5076709571353972
  0.8925914643906052  0.2869571741497513  0.9923290428477700
  0.6074085356026517  0.2130428407632974  0.4923290428814286
  0.7869571741025780  0.1074085132094925  0.7423290428225173
  0.7130428258906860  0.3925914942234454  0.2423290428561827
 
  0.00000000E+00  0.00000000E+00  0.00000000E+00
  0.00000000E+00  0.00000000E+00  0.00000000E+00
  0.00000000E+00  0.00000000E+00  0.00000000E+00
  0.00000000E+00  0.00000000E+00  0.00000000E+00
  0.00000000E+00  0.00000000E+00  0.00000000E+00
  0.00000000E+00  0.00000000E+00  0.00000000E+00
  0.00000000E+00  0.00000000E+00  0.00000000E+00
  0.00000000E+00  0.00000000E+00  0.00000000E+00
  0.00000000E+00  0.00000000E+00  0.00000000E+00
  0.00000000E+00  0.00000000E+00  0.00000000E+00
  0.00000000E+00  0.00000000E+00  0.00000000E+00
  0.00000000E+00  0.00000000E+00  0.00000000E+00
  0.00000000E+00  0.00000000E+00  0.00000000E+00
  0.00000000E+00  0.00000000E+00  0.00000000E+00
  0.00000000E+00  0.00000000E+00  0.00000000E+00
  0.00000000E+00  0.00000000E+00  0.00000000E+00
  0.00000000E+00  0.00000000E+00  0.00000000E+00
  0.00000000E+00  0.00000000E+00  0.00000000E+00
  0.00000000E+00  0.00000000E+00  0.00000000E+00
  0.00000000E+00  0.00000000E+00  0.00000000E+00
  0.00000000E+00  0.00000000E+00  0.00000000E+00
  0.00000000E+00  0.00000000E+00  0.00000000E+00
  0.00000000E+00  0.00000000E+00  0.00000000E+00
  0.00000000E+00  0.00000000E+00  0.00000000E+00
  0.00000000E+00  0.00000000E+00  0.00000000E+00
  0.00000000E+00  0.00000000E+00  0.00000000E+00
  0.00000000E+00  0.00000000E+00  0.00000000E+00
  0.00000000E+00  0.00000000E+00  0.00000000E+00
  0.00000000E+00  0.00000000E+00  0.00000000E+00
  0.00000000E+00  0.00000000E+00  0.00000000E+00
  0.00000000E+00  0.00000000E+00  0.00000000E+00
  0.00000000E+00  0.00000000E+00  0.00000000E+00
  0.00000000E+00  0.00000000E+00  0.00000000E+00
  0.00000000E+00  0.00000000E+00  0.00000000E+00
  0.00000000E+00  0.00000000E+00  0.00000000E+00
  0.00000000E+00  0.00000000E+00  0.00000000E+00
  0.00000000E+00  0.00000000E+00  0.00000000E+00
  0.00000000E+00  0.00000000E+00  0.00000000E+00
  0.00000000E+00  0.00000000E+00  0.00000000E+00
  0.00000000E+00  0.00000000E+00  0.00000000E+00
  0.00000000E+00  0.00000000E+00  0.00000000E+00
  0.00000000E+00  0.00000000E+00  0.00000000E+00
  0.00000000E+00  0.00000000E+00  0.00000000E+00
  0.00000000E+00  0.00000000E+00  0.00000000E+00
  0.00000000E+00  0.00000000E+00  0.00000000E+00
  0.00000000E+00  0.00000000E+00  0.00000000E+00
  0.00000000E+00  0.00000000E+00  0.00000000E+00
  0.00000000E+00  0.00000000E+00  0.00000000E+00
  0.00000000E+00  0.00000000E+00  0.00000000E+00
  0.00000000E+00  0.00000000E+00  0.00000000E+00
  0.00000000E+00  0.00000000E+00  0.00000000E+00
  0.00000000E+00  0.00000000E+00  0.00000000E+00
  0.00000000E+00  0.00000000E+00  0.00000000E+00
  0.00000000E+00  0.00000000E+00  0.00000000E+00
  0.00000000E+00  0.00000000E+00  0.00000000E+00
  0.00000000E+00  0.00000000E+00  0.00000000E+00
  0.00000000E+00  0.00000000E+00  0.00000000E+00
  0.00000000E+00  0.00000000E+00  0.00000000E+00
  0.00000000E+00  0.00000000E+00  0.00000000E+00
  0.00000000E+00  0.00000000E+00  0.00000000E+00
  0.00000000E+00  0.00000000E+00  0.00000000E+00
  0.00000000E+00  0.00000000E+00  0.00000000E+00
  0.00000000E+00  0.00000000E+00  0.00000000E+00
  0.00000000E+00  0.00000000E+00  0.00000000E+00
  0.00000000E+00  0.00000000E+00  0.00000000E+00
  0.00000000E+00  0.00000000E+00  0.00000000E+00
  0.00000000E+00  0.00000000E+00  0.00000000E+00
  0.00000000E+00  0.00000000E+00  0.00000000E+00
  0.00000000E+00  0.00000000E+00  0.00000000E+00
  0.00000000E+00  0.00000000E+00  0.00000000E+00
  0.00000000E+00  0.00000000E+00  0.00000000E+00
  0.00000000E+00  0.00000000E+00  0.00000000E+00
  0.00000000E+00  0.00000000E+00  0.00000000E+00
  0.00000000E+00  0.00000000E+00  0.00000000E+00
  0.00000000E+00  0.00000000E+00  0.00000000E+00
  0.00000000E+00  0.00000000E+00  0.00000000E+00
  0.00000000E+00  0.00000000E+00  0.00000000E+00
  0.00000000E+00  0.00000000E+00  0.00000000E+00
  0.00000000E+00  0.00000000E+00  0.00000000E+00
  0.00000000E+00  0.00000000E+00  0.00000000E+00
  0.00000000E+00  0.00000000E+00  0.00000000E+00
  0.00000000E+00  0.00000000E+00  0.00000000E+00
  0.00000000E+00  0.00000000E+00  0.00000000E+00
  0.00000000E+00  0.00000000E+00  0.00000000E+00
  0.00000000E+00  0.00000000E+00  0.00000000E+00
  0.00000000E+00  0.00000000E+00  0.00000000E+00
  0.00000000E+00  0.00000000E+00  0.00000000E+00
  0.00000000E+00  0.00000000E+00  0.00000000E+00
  0.00000000E+00  0.00000000E+00  0.00000000E+00
  0.00000000E+00  0.00000000E+00  0.00000000E+00
  0.00000000E+00  0.00000000E+00  0.00000000E+00
  0.00000000E+00  0.00000000E+00  0.00000000E+00
  0.00000000E+00  0.00000000E+00  0.00000000E+00
  0.00000000E+00  0.00000000E+00  0.00000000E+00
  0.00000000E+00  0.00000000E+00  0.00000000E+00
  0.00000000E+00  0.00000000E+00  0.00000000E+00
  0.00000000E+00  0.00000000E+00  0.00000000E+00
  0.00000000E+00  0.00000000E+00  0.00000000E+00
  0.00000000E+00  0.00000000E+00  0.00000000E+00
  0.00000000E+00  0.00000000E+00  0.00000000E+00
  0.00000000E+00  0.00000000E+00  0.00000000E+00
  0.00000000E+00  0.00000000E+00  0.00000000E+00
  0.00000000E+00  0.00000000E+00  0.00000000E+00
  0.00000000E+00  0.00000000E+00  0.00000000E+00
  0.00000000E+00  0.00000000E+00  0.00000000E+00
  0.00000000E+00  0.00000000E+00  0.00000000E+00
  0.00000000E+00  0.00000000E+00  0.00000000E+00
  0.00000000E+00  0.00000000E+00  0.00000000E+00
  0.00000000E+00  0.00000000E+00  0.00000000E+00
  0.00000000E+00  0.00000000E+00  0.00000000E+00
  0.00000000E+00  0.00000000E+00  0.00000000E+00
  0.00000000E+00  0.00000000E+00  0.00000000E+00
  0.00000000E+00  0.00000000E+00  0.00000000E+00
  0.00000000E+00  0.00000000E+00  0.00000000E+00
  0.00000000E+00  0.00000000E+00  0.00000000E+00
  0.00000000E+00  0.00000000E+00  0.00000000E+00
  0.00000000E+00  0.00000000E+00  0.00000000E+00
  0.00000000E+00  0.00000000E+00  0.00000000E+00
  0.00000000E+00  0.00000000E+00  0.00000000E+00
  0.00000000E+00  0.00000000E+00  0.00000000E+00
  0.00000000E+00  0.00000000E+00  0.00000000E+00
  0.00000000E+00  0.00000000E+00  0.00000000E+00
  0.00000000E+00  0.00000000E+00  0.00000000E+00
  0.00000000E+00  0.00000000E+00  0.00000000E+00
  0.00000000E+00  0.00000000E+00  0.00000000E+00
  0.00000000E+00  0.00000000E+00  0.00000000E+00
  0.00000000E+00  0.00000000E+00  0.00000000E+00
  0.00000000E+00  0.00000000E+00  0.00000000E+00
  0.00000000E+00  0.00000000E+00  0.00000000E+00
  0.00000000E+00  0.00000000E+00  0.00000000E+00
  0.00000000E+00  0.00000000E+00  0.00000000E+00
  0.00000000E+00  0.00000000E+00  0.00000000E+00
  0.00000000E+00  0.00000000E+00  0.00000000E+00
  0.00000000E+00  0.00000000E+00  0.00000000E+00
  0.00000000E+00  0.00000000E+00  0.00000000E+00
  0.00000000E+00  0.00000000E+00  0.00000000E+00
  0.00000000E+00  0.00000000E+00  0.00000000E+00
  0.00000000E+00  0.00000000E+00  0.00000000E+00
  0.00000000E+00  0.00000000E+00  0.00000000E+00
  0.00000000E+00  0.00000000E+00  0.00000000E+00
  0.00000000E+00  0.00000000E+00  0.00000000E+00
  0.00000000E+00  0.00000000E+00  0.00000000E+00
  0.00000000E+00  0.00000000E+00  0.00000000E+00
  0.00000000E+00  0.00000000E+00  0.00000000E+00
