# 
# Keywords:
# 
opti eigen comp prop conv molmec phon  
# 
# Options:
# 
cell
  18.338511  18.338511  18.338513  59.999645  59.999644  59.999641
fractional  1   
Zn172 core 0.2978662 0.2978662 0.4715398 2.00000000 1.00000 0.00000             
Zn172 core 0.2978667 0.2978666 0.2911986 2.00000000 1.00000 0.00000             
Zn172 core 0.2978662 0.4782079 0.2911981 2.00000000 1.00000 0.00000             
Zn172 core 0.4782080 0.2978662 0.2911981 2.00000000 1.00000 0.00000             
Zn172 core 0.8880375 0.8880374 0.7010276 2.00000000 1.00000 0.00000             
Zn172 core 0.8880370 0.8880370 0.8813689 2.00000000 1.00000 0.00000             
Zn172 core 0.7076957 0.8880375 0.8813694 2.00000000 1.00000 0.00000             
Zn172 core 0.8880375 0.7076957 0.8813693 2.00000000 1.00000 0.00000             
O171  core 0.3429518 0.3429518 0.3362837 -2.0000000 1.00000 0.00000             
O171  core 0.8429519 0.8429519 0.8362838 -2.0000000 1.00000 0.00000             
O170  core 0.3982853 0.2276476 0.5115575 -1.0800000 1.00000 0.00000             
O170  core 0.2276485 0.3982858 0.2209804 -1.0800000 1.00000 0.00000             
O170  core 0.2276478 0.5182262 0.2209797 -1.0800000 1.00000 0.00000             
O170  core 0.5182256 0.2276475 0.3916172 -1.0800000 1.00000 0.00000             
O170  core 0.5182256 0.3982853 0.2209795 -1.0800000 1.00000 0.00000             
O170  core 0.2276476 0.5182256 0.3916172 -1.0800000 1.00000 0.00000             
O170  core 0.3982853 0.5182256 0.2209795 -1.0800000 1.00000 0.00000             
O170  core 0.3982859 0.2276485 0.2209804 -1.0800000 1.00000 0.00000             
O170  core 0.2276485 0.2276485 0.3916178 -1.0800000 1.00000 0.00000             
O170  core 0.5182262 0.2276477 0.2209797 -1.0800000 1.00000 0.00000             
O170  core 0.2276478 0.2276478 0.5115581 -1.0800000 1.00000 0.00000             
O170  core 0.2276476 0.3982853 0.5115575 -1.0800000 1.00000 0.00000             
O170  core 0.9582561 0.7876184 0.6610100 -1.0800000 1.00000 0.00000             
O170  core 0.7876178 0.9582552 0.9515871 -1.0800000 1.00000 0.00000             
O170  core 0.6676775 0.9582559 0.9515878 -1.0800000 1.00000 0.00000             
O170  core 0.9582561 0.6676780 0.7809503 -1.0800000 1.00000 0.00000             
O170  core 0.7876184 0.6676781 0.9515880 -1.0800000 1.00000 0.00000             
O170  core 0.6676781 0.9582561 0.7809503 -1.0800000 1.00000 0.00000             
O170  core 0.6676781 0.7876184 0.9515880 -1.0800000 1.00000 0.00000             
O170  core 0.9582552 0.7876178 0.9515871 -1.0800000 1.00000 0.00000             
O170  core 0.9582552 0.9582552 0.7809497 -1.0800000 1.00000 0.00000             
O170  core 0.9582559 0.6676775 0.9515878 -1.0800000 1.00000 0.00000             
O170  core 0.9582559 0.9582559 0.6610094 -1.0800000 1.00000 0.00000             
O170  core 0.7876184 0.9582561 0.6610100 -1.0800000 1.00000 0.00000             
C913  core 0.4819524 0.2039508 0.4752843 1.07050000 1.00000 0.00000             
C913  core 0.2039512 0.4819529 0.1972831 1.07050000 1.00000 0.00000             
C913  core 0.4819524 0.4819523 0.1972827 1.07050000 1.00000 0.00000             
C913  core 0.2039508 0.4819524 0.4752843 1.07050000 1.00000 0.00000             
C913  core 0.4819529 0.2039512 0.1972831 1.07050000 1.00000 0.00000             
C913  core 0.2039512 0.2039512 0.4752848 1.07050000 1.00000 0.00000             
C913  core 0.9819529 0.7039513 0.6972832 1.07050000 1.00000 0.00000             
C913  core 0.7039508 0.9819524 0.9752843 1.07050000 1.00000 0.00000             
C913  core 0.7039513 0.7039513 0.9752848 1.07050000 1.00000 0.00000             
C913  core 0.7039513 0.9819528 0.6972832 1.07050000 1.00000 0.00000             
C913  core 0.9819525 0.7039508 0.9752843 1.07050000 1.00000 0.00000             
C913  core 0.9819525 0.9819524 0.6972827 1.07050000 1.00000 0.00000             
C902  core 0.5400775 0.1458260 0.5334094 0.00500000 1.00000 0.00000             
C902  core 0.1458261 0.5400777 0.1391580 0.00500000 1.00000 0.00000             
C902  core 0.5400775 0.5400775 0.1391579 0.00500000 1.00000 0.00000             
C902  core 0.1458260 0.5400775 0.5334094 0.00500000 1.00000 0.00000             
C902  core 0.5400778 0.1458261 0.1391580 0.00500000 1.00000 0.00000             
C902  core 0.1458261 0.1458261 0.5334096 0.00500000 1.00000 0.00000             
C902  core 0.0400777 0.6458261 0.6391580 0.00500000 1.00000 0.00000             
C902  core 0.6458259 0.0400776 0.0334095 0.00500000 1.00000 0.00000             
C902  core 0.6458261 0.6458261 0.0334096 0.00500000 1.00000 0.00000             
C902  core 0.6458261 0.0400777 0.6391580 0.00500000 1.00000 0.00000             
C902  core 0.0400776 0.6458259 0.0334095 0.00500000 1.00000 0.00000             
C902  core 0.0400776 0.0400776 0.6391578 0.00500000 1.00000 0.00000             
C912  core 0.5011750 0.1194751 0.6250139 -0.0702500 1.00000 0.00000             
C912  core 0.1194757 0.5011749 0.1128075 -0.0702500 1.00000 0.00000             
C912  core 0.1194747 0.6316822 0.1128066 -0.0702500 1.00000 0.00000             
C912  core 0.6316820 0.1194751 0.4945069 -0.0702500 1.00000 0.00000             
C912  core 0.6316820 0.5011750 0.1128070 -0.0702500 1.00000 0.00000             
C912  core 0.1194751 0.6316820 0.4945069 -0.0702500 1.00000 0.00000             
C912  core 0.5011750 0.6316820 0.1128070 -0.0702500 1.00000 0.00000             
C912  core 0.5011750 0.1194756 0.1128075 -0.0702500 1.00000 0.00000             
C912  core 0.1194756 0.1194756 0.4945069 -0.0702500 1.00000 0.00000             
C912  core 0.6316823 0.1194747 0.1128066 -0.0702500 1.00000 0.00000             
C912  core 0.1194747 0.1194747 0.6250141 -0.0702500 1.00000 0.00000             
C912  core 0.1194751 0.5011750 0.6250139 -0.0702500 1.00000 0.00000             
C912  core 0.0664285 0.6847287 0.5475536 -0.0702500 1.00000 0.00000             
C912  core 0.6847288 0.0664280 0.0597599 -0.0702500 1.00000 0.00000             
C912  core 0.5542215 0.0664290 0.0597609 -0.0702500 1.00000 0.00000             
C912  core 0.0664286 0.5542216 0.6780606 -0.0702500 1.00000 0.00000             
C912  core 0.6847287 0.5542216 0.0597605 -0.0702500 1.00000 0.00000             
C912  core 0.5542216 0.0664285 0.6780606 -0.0702500 1.00000 0.00000             
C912  core 0.5542216 0.6847287 0.0597605 -0.0702500 1.00000 0.00000             
C912  core 0.0664280 0.6847287 0.0597599 -0.0702500 1.00000 0.00000             
C912  core 0.0664281 0.0664280 0.6780606 -0.0702500 1.00000 0.00000             
C912  core 0.0664290 0.5542214 0.0597609 -0.0702500 1.00000 0.00000             
C912  core 0.0664290 0.0664290 0.5475533 -0.0702500 1.00000 0.00000             
C912  core 0.6847287 0.0664285 0.5475536 -0.0702500 1.00000 0.00000             
H915  core 0.4290696 0.1409757 0.6541179 0.11250000 1.00000 0.00000             
H915  core 0.1409767 0.4290696 0.1343085 0.11250000 1.00000 0.00000             
H915  core 0.1409750 0.6607863 0.1343069 0.11250000 1.00000 0.00000             
H915  core 0.6607861 0.1409757 0.4224016 0.11250000 1.00000 0.00000             
H915  core 0.6607861 0.4290696 0.1343076 0.11250000 1.00000 0.00000             
H915  core 0.1409757 0.6607861 0.4224016 0.11250000 1.00000 0.00000             
H915  core 0.4290696 0.6607861 0.1343076 0.11250000 1.00000 0.00000             
H915  core 0.4290696 0.1409766 0.1343086 0.11250000 1.00000 0.00000             
H915  core 0.1409767 0.1409766 0.4224015 0.11250000 1.00000 0.00000             
H915  core 0.6607864 0.1409750 0.1343069 0.11250000 1.00000 0.00000             
H915  core 0.1409750 0.1409750 0.6541182 0.11250000 1.00000 0.00000             
H915  core 0.1409758 0.4290696 0.6541179 0.11250000 1.00000 0.00000             
H915  core 0.0449279 0.7568340 0.5184495 0.11250000 1.00000 0.00000             
H915  core 0.7568341 0.0449270 0.0382589 0.11250000 1.00000 0.00000             
H915  core 0.5251173 0.0449287 0.0382606 0.11250000 1.00000 0.00000             
H915  core 0.0449279 0.5251176 0.7501659 0.11250000 1.00000 0.00000             
H915  core 0.7568340 0.5251176 0.0382598 0.11250000 1.00000 0.00000             
H915  core 0.5251176 0.0449279 0.7501659 0.11250000 1.00000 0.00000             
H915  core 0.5251176 0.7568340 0.0382598 0.11250000 1.00000 0.00000             
H915  core 0.0449270 0.7568340 0.0382589 0.11250000 1.00000 0.00000             
H915  core 0.0449270 0.0449270 0.7501659 0.11250000 1.00000 0.00000             
H915  core 0.0449287 0.5251173 0.0382605 0.11250000 1.00000 0.00000             
H915  core 0.0449287 0.0449286 0.5184493 0.11250000 1.00000 0.00000             
H915  core 0.7568340 0.0449279 0.5184495 0.11250000 1.00000 0.00000             
space
  1
