# 
# Keywords:
# 
opti comp prop phonon molmec conv  
# 
# Options:
# 
name uio-67                                                                     
cell
  19.065564  19.065594  19.065640  59.999651  59.999921  59.999923
fractional  1   
H915  core 0.2938854 0.6520725 0.1339235 0.11250000 1.00000 0.00000             
H915  core 0.6479468 0.2980595 0.9107750 0.11250000 1.00000 0.00000             
H915  core 0.1011589 0.8821834 0.3266555 0.11250000 1.00000 0.00000             
H915  core 0.8780345 0.1053258 0.6806785 0.11250000 1.00000 0.00000             
H915  core 0.1011675 0.2980521 0.6806906 0.11250000 1.00000 0.00000             
H915  core 0.8780446 0.6520624 0.3266426 0.11250000 1.00000 0.00000             
H915  core 0.2938829 0.1053150 0.9108087 0.11250000 1.00000 0.00000             
H915  core 0.6479394 0.8821878 0.1339131 0.11250000 1.00000 0.00000             
H915  core 0.6479432 0.1053019 0.3266561 0.11250000 1.00000 0.00000             
H915  core 0.2938684 0.8822135 0.6806724 0.11250000 1.00000 0.00000             
H915  core 0.8780271 0.2980537 0.1339207 0.11250000 1.00000 0.00000             
H915  core 0.1011755 0.6520766 0.9107904 0.11250000 1.00000 0.00000             
H915  core 0.4199046 0.5176608 0.1383959 0.11250000 1.00000 0.00000             
H915  core 0.5135368 0.4240843 0.9146896 0.11250000 1.00000 0.00000             
H915  core 0.1056285 0.8861062 0.4526748 0.11250000 1.00000 0.00000             
H915  core 0.8819519 0.1097937 0.5462700 0.11250000 1.00000 0.00000             
H915  core 0.1056364 0.4240737 0.5462781 0.11250000 1.00000 0.00000             
H915  core 0.8819727 0.5176510 0.4526635 0.11250000 1.00000 0.00000             
H915  core 0.4199040 0.1097900 0.9147239 0.11250000 1.00000 0.00000             
H915  core 0.5135276 0.8861011 0.1383906 0.11250000 1.00000 0.00000             
H915  core 0.5135356 0.1097732 0.4526818 0.11250000 1.00000 0.00000             
H915  core 0.4198908 0.8861272 0.5462626 0.11250000 1.00000 0.00000             
H915  core 0.8819490 0.4240758 0.1383862 0.11250000 1.00000 0.00000             
H915  core 0.1056443 0.5176640 0.9147145 0.11250000 1.00000 0.00000             
H915  core 0.8780377 0.6520882 0.1339101 0.11250000 1.00000 0.00000             
H915  core 0.6479147 0.8821950 0.3266408 0.11250000 1.00000 0.00000             
H915  core 0.1011737 0.2980319 0.9108057 0.11250000 1.00000 0.00000             
H915  core 0.2939180 0.1053061 0.6806985 0.11250000 1.00000 0.00000             
H915  core 0.1011636 0.8821965 0.6806805 0.11250000 1.00000 0.00000             
H915  core 0.2939071 0.6520949 0.9107734 0.11250000 1.00000 0.00000             
H915  core 0.8780383 0.1053230 0.3266404 0.11250000 1.00000 0.00000             
H915  core 0.6479166 0.2980343 0.1339312 0.11250000 1.00000 0.00000             
H915  core 0.6479145 0.1053325 0.9107976 0.11250000 1.00000 0.00000             
H915  core 0.8780506 0.2980362 0.6806821 0.11250000 1.00000 0.00000             
H915  core 0.2938946 0.8821789 0.1339335 0.11250000 1.00000 0.00000             
H915  core 0.1011531 0.6520936 0.3266512 0.11250000 1.00000 0.00000             
H915  core 0.8819550 0.5176762 0.1383848 0.11250000 1.00000 0.00000             
H915  core 0.5135041 0.8861178 0.4526633 0.11250000 1.00000 0.00000             
H915  core 0.1056472 0.4240533 0.9147209 0.11250000 1.00000 0.00000             
H915  core 0.4199430 0.1097675 0.5462922 0.11250000 1.00000 0.00000             
H915  core 0.1056322 0.8861138 0.5462718 0.11250000 1.00000 0.00000             
H915  core 0.4199310 0.5176856 0.9146896 0.11250000 1.00000 0.00000             
H915  core 0.8819571 0.1097971 0.4526593 0.11250000 1.00000 0.00000             
H915  core 0.5135042 0.4240570 0.1383987 0.11250000 1.00000 0.00000             
H915  core 0.5135020 0.1097974 0.9147251 0.11250000 1.00000 0.00000             
H915  core 0.8819697 0.4240563 0.5462680 0.11250000 1.00000 0.00000             
H915  core 0.4199161 0.8861025 0.1383994 0.11250000 1.00000 0.00000             
H915  core 0.1056297 0.5176839 0.4526745 0.11250000 1.00000 0.00000             
H21   core 0.9175812 0.9217328 0.2010266 0.15000000 1.00000 0.00000             
H21   core 0.9175852 0.9217421 0.9503324 0.15000000 1.00000 0.00000             
H21   core 0.1682716 0.9217363 0.9503438 0.15000000 1.00000 0.00000             
H21   core 0.9175862 0.1724245 0.9503433 0.15000000 1.00000 0.00000             
C912  core 0.3219710 0.6213351 0.0865137 -0.0702500 1.00000 0.00000             
C912  core 0.6171972 0.3261351 0.9608464 -0.0702500 1.00000 0.00000             
C912  core 0.0537559 0.9322529 0.3547325 -0.0702500 1.00000 0.00000             
C912  core 0.9281002 0.0579198 0.6499376 -0.0702500 1.00000 0.00000             
C912  core 0.0537655 0.3261293 0.6499454 -0.0702500 1.00000 0.00000             
C912  core 0.9281076 0.6213281 0.3547260 -0.0702500 1.00000 0.00000             
C912  core 0.3219668 0.0579096 0.9608730 -0.0702500 1.00000 0.00000             
C912  core 0.6171913 0.9322560 0.0865128 -0.0702500 1.00000 0.00000             
C912  core 0.6171947 0.0579023 0.3547346 -0.0702500 1.00000 0.00000             
C912  core 0.3219637 0.9322679 0.6499385 -0.0702500 1.00000 0.00000             
C912  core 0.9280980 0.3261297 0.0865183 -0.0702500 1.00000 0.00000             
C912  core 0.0537675 0.6213372 0.9608554 -0.0702500 1.00000 0.00000             
C912  core 0.3919166 0.5466924 0.0887656 -0.0702500 1.00000 0.00000             
C912  core 0.5425564 0.3960827 0.9632886 -0.0702500 1.00000 0.00000             
C912  core 0.0560065 0.9346997 0.4246778 -0.0702500 1.00000 0.00000             
C912  core 0.9305445 0.0601703 0.5752961 -0.0702500 1.00000 0.00000             
C912  core 0.0560156 0.3960754 0.5753027 -0.0702500 1.00000 0.00000             
C912  core 0.9305572 0.5466854 0.4246721 -0.0702500 1.00000 0.00000             
C912  core 0.3919127 0.0601633 0.9633158 -0.0702500 1.00000 0.00000             
C912  core 0.5425483 0.9346980 0.0887684 -0.0702500 1.00000 0.00000             
C912  core 0.5425548 0.0601538 0.4246831 -0.0702500 1.00000 0.00000             
C912  core 0.3919095 0.9347108 0.5752958 -0.0702500 1.00000 0.00000             
C912  core 0.9305442 0.3960766 0.0887665 -0.0702500 1.00000 0.00000             
C912  core 0.0560184 0.5466936 0.9633033 -0.0702500 1.00000 0.00000             
C913  core 0.2139538 0.7430198 0.0168532 1.17050000 1.00000 0.00000             
C913  core 0.7388660 0.2181054 0.0168575 1.17050000 1.00000 0.00000             
C913  core 0.9840992 0.9882520 0.2467099 1.17050000 1.00000 0.00000             
C913  core 0.9841009 0.9882622 0.7716169 1.17050000 1.00000 0.00000             
C913  core 0.9841090 0.2181063 0.7716248 1.17050000 1.00000 0.00000             
C913  core 0.9840993 0.7430141 0.2467059 1.17050000 1.00000 0.00000             
C913  core 0.2139504 0.9882473 0.0168712 1.17050000 1.00000 0.00000             
C913  core 0.7388659 0.9882606 0.0168529 1.17050000 1.00000 0.00000             
C913  core 0.7388650 0.9882492 0.2467078 1.17050000 1.00000 0.00000             
C913  core 0.2139530 0.9882622 0.7716227 1.17050000 1.00000 0.00000             
C913  core 0.9841010 0.2181036 0.0168649 1.17050000 1.00000 0.00000             
C913  core 0.9841065 0.7430216 0.0168493 1.17050000 1.00000 0.00000             
C902  core 0.2880101 0.6591496 0.0217587 0.00500000 1.00000 0.00000             
C902  core 0.6549967 0.2921622 0.0217632 0.00500000 1.00000 0.00000             
C902  core 0.9890078 0.9931622 0.3207633 0.00500000 1.00000 0.00000             
C902  core 0.9890080 0.9931699 0.6877464 0.00500000 1.00000 0.00000             
C902  core 0.9890181 0.2921600 0.6877524 0.00500000 1.00000 0.00000             
C902  core 0.9890085 0.6591436 0.3207617 0.00500000 1.00000 0.00000             
C902  core 0.2880044 0.9931562 0.0217800 0.00500000 1.00000 0.00000             
C902  core 0.6549935 0.9931690 0.0217639 0.00500000 1.00000 0.00000             
C902  core 0.6549953 0.9931572 0.3207640 0.00500000 1.00000 0.00000             
C902  core 0.2880093 0.9931682 0.6877527 0.00500000 1.00000 0.00000             
C902  core 0.9890096 0.2921583 0.0217724 0.00500000 1.00000 0.00000             
C902  core 0.9890153 0.6591492 0.0217591 0.00500000 1.00000 0.00000             
C903  core 0.4273677 0.5099361 0.0266865 -0.0845000 1.00000 0.00000             
C903  core 0.5057848 0.4315190 0.0266875 -0.0845000 1.00000 0.00000             
C903  core 0.9939360 0.9980953 0.4601172 -0.0845000 1.00000 0.00000             
C903  core 0.9939358 0.9980975 0.5385336 -0.0845000 1.00000 0.00000             
C903  core 0.9939469 0.4315140 0.5385363 -0.0845000 1.00000 0.00000             
C903  core 0.9939451 0.5099307 0.4601183 -0.0845000 1.00000 0.00000             
C903  core 0.4273599 0.9980898 0.0267050 -0.0845000 1.00000 0.00000             
C903  core 0.5057777 0.9980926 0.0267019 -0.0845000 1.00000 0.00000             
C903  core 0.5057832 0.9980891 0.4601224 -0.0845000 1.00000 0.00000             
C903  core 0.4273666 0.9980909 0.5385403 -0.0845000 1.00000 0.00000             
C903  core 0.9939417 0.4315147 0.0266966 -0.0845000 1.00000 0.00000             
C903  core 0.9939434 0.5099329 0.0266935 -0.0845000 1.00000 0.00000             
C912  core 0.9281059 0.6213426 0.0865083 -0.0702500 1.00000 0.00000             
C912  core 0.6171792 0.9322567 0.3547263 -0.0702500 1.00000 0.00000             
C912  core 0.0537656 0.3261178 0.9608680 -0.0702500 1.00000 0.00000             
C912  core 0.3219876 0.0579080 0.6499509 -0.0702500 1.00000 0.00000             
C912  core 0.0537580 0.9322625 0.6499382 -0.0702500 1.00000 0.00000             
C912  core 0.3219829 0.6213469 0.9608449 -0.0702500 1.00000 0.00000             
C912  core 0.9281027 0.0579165 0.3547241 -0.0702500 1.00000 0.00000             
C912  core 0.6171807 0.3261220 0.0865193 -0.0702500 1.00000 0.00000             
C912  core 0.6171774 0.0579226 0.9608628 -0.0702500 1.00000 0.00000             
C912  core 0.9281140 0.3261210 0.6499407 -0.0702500 1.00000 0.00000             
C912  core 0.3219726 0.9322481 0.0865286 -0.0702500 1.00000 0.00000             
C912  core 0.0537560 0.6213430 0.3547294 -0.0702500 1.00000 0.00000             
C912  core 0.9305499 0.5466996 0.0887621 -0.0702500 1.00000 0.00000             
C912  core 0.5425369 0.9347042 0.4246723 -0.0702500 1.00000 0.00000             
C912  core 0.0560184 0.3960641 0.9633105 -0.0702500 1.00000 0.00000             
C912  core 0.3919357 0.0601549 0.5753103 -0.0702500 1.00000 0.00000             
C912  core 0.0560087 0.9347066 0.5752968 -0.0702500 1.00000 0.00000             
C912  core 0.3919305 0.5467055 0.9632882 -0.0702500 1.00000 0.00000             
C912  core 0.9305472 0.0601697 0.4246692 -0.0702500 1.00000 0.00000             
C912  core 0.5425385 0.3960682 0.0887690 -0.0702500 1.00000 0.00000             
C912  core 0.5425339 0.0601713 0.9633126 -0.0702500 1.00000 0.00000             
C912  core 0.9305593 0.3960655 0.5752969 -0.0702500 1.00000 0.00000             
C912  core 0.3919189 0.9346952 0.0887774 -0.0702500 1.00000 0.00000             
C912  core 0.0560102 0.5467015 0.4246768 -0.0702500 1.00000 0.00000             
O170  core 0.1852953 0.7769880 0.0735154 -1.1300000 1.00000 0.00000             
O170  core 0.7728447 0.1894588 0.9548753 -1.1300000 1.00000 0.00000             
O170  core 0.0407528 0.9262718 0.2180614 -1.1300000 1.00000 0.00000             
O170  core 0.9221249 0.0449181 0.8055910 -1.1300000 1.00000 0.00000             
O170  core 0.0407612 0.1894554 0.8056029 -1.1300000 1.00000 0.00000             
O170  core 0.9221262 0.7769867 0.2180479 -1.1300000 1.00000 0.00000             
O170  core 0.1852988 0.0449058 0.9548940 -1.1300000 1.00000 0.00000             
O170  core 0.7728422 0.9262792 0.0735054 -1.1300000 1.00000 0.00000             
O170  core 0.7728414 0.0449016 0.2180607 -1.1300000 1.00000 0.00000             
O170  core 0.1852920 0.9262924 0.8055893 -1.1300000 1.00000 0.00000             
O170  core 0.9221200 0.1894546 0.0735172 -1.1300000 1.00000 0.00000             
O170  core 0.0407633 0.7769957 0.9548744 -1.1300000 1.00000 0.00000             
O170  core 0.9221266 0.7769960 0.0735034 -1.1300000 1.00000 0.00000             
O170  core 0.7728358 0.9262771 0.2180487 -1.1300000 1.00000 0.00000             
O170  core 0.0407609 0.1894477 0.9548908 -1.1300000 1.00000 0.00000             
O170  core 0.1853077 0.0449110 0.8056030 -1.1300000 1.00000 0.00000             
O170  core 0.0407576 0.9262850 0.8055900 -1.1300000 1.00000 0.00000             
O170  core 0.1853061 0.7769985 0.9548714 -1.1300000 1.00000 0.00000             
O170  core 0.9221237 0.0449094 0.2180545 -1.1300000 1.00000 0.00000             
O170  core 0.7728344 0.1894455 0.0735201 -1.1300000 1.00000 0.00000             
O170  core 0.7728384 0.0449191 0.9548785 -1.1300000 1.00000 0.00000             
O170  core 0.9221329 0.1894528 0.8055950 -1.1300000 1.00000 0.00000             
O170  core 0.1852976 0.9262689 0.0735243 -1.1300000 1.00000 0.00000             
O170  core 0.0407524 0.7769892 0.2180584 -1.1300000 1.00000 0.00000             
O75   core 0.1049107 0.9428570 0.9714616 -1.1500000 1.00000 0.00000             
O75   core 0.9387044 0.1090635 0.9714639 -1.1500000 1.00000 0.00000             
O75   core 0.9387024 0.9428530 0.1376657 -1.1500000 1.00000 0.00000             
O75   core 0.9387055 0.9428612 0.9714538 -1.1500000 1.00000 0.00000             
O171  core 0.8581754 0.0251020 0.0537025 -2.0000000 1.00000 0.00000             
O171  core 0.0209490 0.8623282 0.0537011 -2.0000000 1.00000 0.00000             
O171  core 0.0209508 0.0251066 0.8909310 -2.0000000 1.00000 0.00000             
O171  core 0.0209478 0.0250980 0.0537099 -2.0000000 1.00000 0.00000             
Zr    core 0.0727023 0.0768528 0.9205727 4.00000000 1.00000 0.00000             
Zr    core 0.8878103 0.8919632 0.1054508 4.00000000 1.00000 0.00000             
Zr    core 0.8878087 0.0768506 0.1054588 4.00000000 1.00000 0.00000             
Zr    core 0.0727019 0.8919685 0.9205617 4.00000000 1.00000 0.00000             
Zr    core 0.0726980 0.8919589 0.1054593 4.00000000 1.00000 0.00000             
Zr    core 0.8878125 0.0768579 0.9205639 4.00000000 1.00000 0.00000             
space
  1

output shengBTE
output frc forceconstants.frc
