# 
# Keywords:
# 
opti comp prop phonon molmec conv  
# 
# Options:
# 
name uio-66                                                                     
cell
  14.949625  14.949626  14.949632  59.999981  59.999976  59.999948
fractional  1   
H915  core 0.1526396 0.5796200 0.4071189 0.11250000 1.00000 0.00000             
H915  core 0.5758717 0.1563885 0.8654967 0.11250000 1.00000 0.00000             
H915  core 0.4072213 0.8693492 0.1525355 0.11250000 1.00000 0.00000             
H915  core 0.8655996 0.4109711 0.5757672 0.11250000 1.00000 0.00000             
H915  core 0.4072218 0.1563865 0.5757682 0.11250000 1.00000 0.00000             
H915  core 0.8656005 0.5796170 0.1525373 0.11250000 1.00000 0.00000             
H915  core 0.1526406 0.4109697 0.8654961 0.11250000 1.00000 0.00000             
H915  core 0.5758733 0.8693459 0.4071192 0.11250000 1.00000 0.00000             
H915  core 0.5758718 0.4109685 0.1525399 0.11250000 1.00000 0.00000             
H915  core 0.1526413 0.8693476 0.5757698 0.11250000 1.00000 0.00000             
H915  core 0.8656021 0.1563892 0.4071198 0.11250000 1.00000 0.00000             
H915  core 0.4072210 0.5796174 0.8655015 0.11250000 1.00000 0.00000             
H915  core 0.5758717 0.1563865 0.4071194 0.11250000 1.00000 0.00000             
H915  core 0.1526408 0.5796180 0.8654979 0.11250000 1.00000 0.00000             
H915  core 0.8656008 0.4109683 0.1525359 0.11250000 1.00000 0.00000             
H915  core 0.4072239 0.8693455 0.5757685 0.11250000 1.00000 0.00000             
H915  core 0.1526403 0.4109695 0.5757670 0.11250000 1.00000 0.00000             
H915  core 0.5758704 0.8693487 0.1525366 0.11250000 1.00000 0.00000             
H915  core 0.4072230 0.1563886 0.8654953 0.11250000 1.00000 0.00000             
H915  core 0.8655991 0.5796213 0.4071186 0.11250000 1.00000 0.00000             
H915  core 0.4072223 0.5796179 0.1525402 0.11250000 1.00000 0.00000             
H915  core 0.8656013 0.1563878 0.5757702 0.11250000 1.00000 0.00000             
H915  core 0.1526422 0.8693492 0.4071192 0.11250000 1.00000 0.00000             
H915  core 0.5758706 0.4109681 0.8655010 0.11250000 1.00000 0.00000             
H21   core 0.9188101 0.9225560 0.2447961 0.15000000 1.00000 0.00000             
H21   core 0.9188126 0.9225591 0.9187086 0.15000000 1.00000 0.00000             
H21   core 0.2448995 0.9225587 0.9187097 0.15000000 1.00000 0.00000             
H21   core 0.9188111 0.2486464 0.9187105 0.15000000 1.00000 0.00000             
C912  core 0.0904816 0.5413098 0.4445041 -0.0702500 1.00000 0.00000             
C912  core 0.5375613 0.0942306 0.9285791 -0.0702500 1.00000 0.00000             
C912  core 0.4446071 0.9324317 0.0903778 -0.0702500 1.00000 0.00000             
C912  core 0.9286823 0.4483565 0.5374571 -0.0702500 1.00000 0.00000             
C912  core 0.4446078 0.0942284 0.5374581 -0.0702500 1.00000 0.00000             
C912  core 0.9286832 0.5413073 0.0903791 -0.0702500 1.00000 0.00000             
C912  core 0.0904826 0.4483548 0.9285790 -0.0702500 1.00000 0.00000             
C912  core 0.5375627 0.9324287 0.4445046 -0.0702500 1.00000 0.00000             
C912  core 0.5375612 0.4483539 0.0903823 -0.0702500 1.00000 0.00000             
C912  core 0.0904835 0.9324306 0.5374594 -0.0702500 1.00000 0.00000             
C912  core 0.9286846 0.0942309 0.4445055 -0.0702500 1.00000 0.00000             
C912  core 0.4446068 0.5413072 0.9285838 -0.0702500 1.00000 0.00000             
C912  core 0.5375617 0.0942283 0.4445048 -0.0702500 1.00000 0.00000             
C912  core 0.0904828 0.5413078 0.9285801 -0.0702500 1.00000 0.00000             
C912  core 0.9286834 0.4483540 0.0903783 -0.0702500 1.00000 0.00000             
C912  core 0.4446090 0.9324285 0.5374582 -0.0702500 1.00000 0.00000             
C912  core 0.0904821 0.4483556 0.5374570 -0.0702500 1.00000 0.00000             
C912  core 0.5375606 0.9324314 0.0903783 -0.0702500 1.00000 0.00000             
C912  core 0.4446080 0.0942307 0.9285783 -0.0702500 1.00000 0.00000             
C912  core 0.9286821 0.5413105 0.4445039 -0.0702500 1.00000 0.00000             
C912  core 0.4446075 0.5413075 0.0903825 -0.0702500 1.00000 0.00000             
C912  core 0.9286842 0.0942301 0.5374596 -0.0702500 1.00000 0.00000             
C912  core 0.0904840 0.9324315 0.4445052 -0.0702500 1.00000 0.00000             
C912  core 0.5375605 0.4483538 0.9285835 -0.0702500 1.00000 0.00000             
C913  core 0.3017389 0.0084022 0.0045487 1.17050000 1.00000 0.00000             
C913  core 0.0046539 0.3054862 0.6901832 1.17050000 1.00000 0.00000             
C913  core 0.0046528 0.6940380 0.3016358 1.17050000 1.00000 0.00000             
C913  core 0.6902873 0.0084017 0.0045513 1.17050000 1.00000 0.00000             
C913  core 0.0046541 0.3054860 0.0045486 1.17050000 1.00000 0.00000             
C913  core 0.6902895 0.0084003 0.3016359 1.17050000 1.00000 0.00000             
C913  core 0.3017392 0.0083996 0.6901848 1.17050000 1.00000 0.00000             
C913  core 0.0046542 0.6940336 0.0045523 1.17050000 1.00000 0.00000             
C913  core 0.0046561 0.0084036 0.3016353 1.17050000 1.00000 0.00000             
C913  core 0.3017382 0.6940344 0.0045537 1.17050000 1.00000 0.00000             
C913  core 0.6902881 0.3054851 0.0045528 1.17050000 1.00000 0.00000             
C913  core 0.0046541 0.0084002 0.6901871 1.17050000 1.00000 0.00000             
C902  core 0.0083626 0.5886154 0.3996376 0.00500000 1.00000 0.00000             
C902  core 0.5848657 0.0121118 0.0082599 0.00500000 1.00000 0.00000             
C902  core 0.3997411 0.0121121 0.0082586 0.00500000 1.00000 0.00000             
C902  core 0.0083632 0.4034891 0.5847617 0.00500000 1.00000 0.00000             
C902  core 0.3997417 0.0121092 0.5847631 0.00500000 1.00000 0.00000             
C902  core 0.0083639 0.5886122 0.0082610 0.00500000 1.00000 0.00000             
C902  core 0.0083639 0.4034879 0.0082591 0.00500000 1.00000 0.00000             
C902  core 0.5848673 0.0121094 0.3996382 0.00500000 1.00000 0.00000             
C902  core 0.5848659 0.4034873 0.0082636 0.00500000 1.00000 0.00000             
C902  core 0.0083645 0.0121108 0.5847647 0.00500000 1.00000 0.00000             
C902  core 0.0083654 0.0121125 0.3996384 0.00500000 1.00000 0.00000             
C902  core 0.3997405 0.5886123 0.0082640 0.00500000 1.00000 0.00000             
O170  core 0.0783735 0.7367530 0.2640714 -1.1300000 1.00000 0.00000             
O170  core 0.7330035 0.0821220 0.9256810 -1.1300000 1.00000 0.00000             
O170  core 0.2641737 0.9295314 0.0782694 -1.1300000 1.00000 0.00000             
O170  core 0.9257830 0.2679210 0.7328989 -1.1300000 1.00000 0.00000             
O170  core 0.2641735 0.0821206 0.7329000 -1.1300000 1.00000 0.00000             
O170  core 0.9257832 0.7367489 0.0782730 -1.1300000 1.00000 0.00000             
O170  core 0.0783745 0.2679210 0.9256775 -1.1300000 1.00000 0.00000             
O170  core 0.7330065 0.9295299 0.2640695 -1.1300000 1.00000 0.00000             
O170  core 0.7330051 0.2679190 0.0782724 -1.1300000 1.00000 0.00000             
O170  core 0.0783744 0.9295290 0.7329029 -1.1300000 1.00000 0.00000             
O170  core 0.9257853 0.0821245 0.2640701 -1.1300000 1.00000 0.00000             
O170  core 0.2641734 0.7367490 0.9256827 -1.1300000 1.00000 0.00000             
O170  core 0.7330040 0.0821213 0.2640716 -1.1300000 1.00000 0.00000             
O170  core 0.0783749 0.7367493 0.9256821 -1.1300000 1.00000 0.00000             
O170  core 0.9257834 0.2679205 0.0782690 -1.1300000 1.00000 0.00000             
O170  core 0.2641741 0.9295285 0.7329009 -1.1300000 1.00000 0.00000             
O170  core 0.0783749 0.2679203 0.7328983 -1.1300000 1.00000 0.00000             
O170  core 0.7330022 0.9295306 0.0782722 -1.1300000 1.00000 0.00000             
O170  core 0.2641735 0.0821223 0.9256778 -1.1300000 1.00000 0.00000             
O170  core 0.9257822 0.7367548 0.2640698 -1.1300000 1.00000 0.00000             
O170  core 0.2641724 0.7367512 0.0782733 -1.1300000 1.00000 0.00000             
O170  core 0.9257831 0.0821205 0.7329029 -1.1300000 1.00000 0.00000             
O170  core 0.0783769 0.9295331 0.2640696 -1.1300000 1.00000 0.00000             
O170  core 0.7330026 0.2679207 0.9256815 -1.1300000 1.00000 0.00000             
O75   core 0.1636070 0.9496553 0.9458059 -1.1500000 1.00000 0.00000             
O75   core 0.9459093 0.1673539 0.9458035 -1.1500000 1.00000 0.00000             
O75   core 0.9459113 0.9496602 0.1635038 -1.1500000 1.00000 0.00000             
O75   core 0.9459085 0.9496546 0.9458087 -1.1500000 1.00000 0.00000             
O171  core 0.8441534 0.0561403 0.0522918 -2.0000000 1.00000 0.00000             
O171  core 0.0523929 0.8479004 0.0522925 -2.0000000 1.00000 0.00000             
O171  core 0.0523941 0.0561400 0.8440501 -2.0000000 1.00000 0.00000             
O171  core 0.0523947 0.0561425 0.0522888 -2.0000000 1.00000 0.00000             
Zr    core 0.1197992 0.8846160 0.1196972 4.00000000 1.00000 0.00000             
Zr    core 0.8808676 0.1235475 0.8807651 4.00000000 1.00000 0.00000             
Zr    core 0.1198000 0.1235473 0.8807630 4.00000000 1.00000 0.00000             
Zr    core 0.8808674 0.8846148 0.1196956 4.00000000 1.00000 0.00000             
Zr    core 0.8808684 0.1235457 0.1196979 4.00000000 1.00000 0.00000             
Zr    core 0.1198003 0.8846138 0.8807658 4.00000000 1.00000 0.00000             
space
  1
output frc forceconstants.frc
output shengBTE
