NOTT300_0GPa                            
   1.00000000000000     
    14.6705297417826142    0.0000000000000000    0.0000000000000000
     0.0000000000000000   14.6705297417826142    0.0000000000000000
     0.0000000000000000    0.0000000000000000   11.7211311513602290
   Al   C    H    O 
     8    64    32    40
Direct
  0.1925799250482477  0.8074200600319609 -0.0000000000000000
  0.3074200600791336  0.6925799399612961  0.4999999999663345
  0.1925799250482477  0.6925799399612961  0.2500000000252456
  0.3074200600791336  0.8074200600319609  0.7499999999915872
  0.6925799399612961  0.3074200600791336  0.4999999999663345
  0.8074200600319609  0.1925799250482477 -0.0000000000000000
  0.6925799399612961  0.1925799250482477  0.7499999999915872
  0.8074200600319609  0.3074200600791336  0.2500000000252456
  0.0928600105159538  0.8581111393136238  0.2001022213626375
  0.4071400043970947  0.6418888606796331  0.7001022064326923
  0.1418888606594108  0.5928599956433352  0.4501022064916033
  0.3581111393608040  0.9071400044173096  0.9501022064579450
  0.4071400043970947  0.8581111393136238  0.5498977935252294
  0.0928600105159538  0.6418888606796331  0.0498977786626081
  0.3581111393608040  0.5928599956433352  0.2998977934999768
  0.1418888606594108  0.9071400044173096  0.7998977935504750
  0.5928599956433352  0.3581111393608040  0.7001022064326923
  0.9071400044173096  0.1418888606594108  0.2001022213626375
  0.6418888606796331  0.0928600105159538  0.9501022064579450
  0.8581111393136238  0.4071400043970947  0.4501022064916033
  0.9071400044173096  0.3581111393608040  0.0498977786626081
  0.5928599956433352  0.1418888606594108  0.5498977935252294
  0.8581111393136238  0.0928600105159538  0.7998977935504750
  0.6418888606796331  0.4071400043970947  0.2998977934999768
  0.0412703440406191  0.9299068537120342  0.2592496452015103
  0.4587296522732415  0.5700931462812299  0.7592496451678523
  0.0700931313681812  0.5412703477671956  0.5092496452267634
  0.4299068536918123  0.9587296522260684  0.0092496451762649
  0.4587296522732415  0.9299068537120342  0.4907503547900697
  0.0412703440406191  0.5700931462812299  0.9907503548405676
  0.4299068536918123  0.5412703477671956  0.2407503548489807
  0.0700931313681812  0.9587296522260684  0.7407503548153220
  0.5412703477671956  0.4299068536918123  0.7592496451678523
  0.9587296522260684  0.0700931313681812  0.2592496452015103
  0.5700931462812299  0.0412703440406191  0.0092496451762649
  0.9299068537120342  0.4587296522732415  0.5092496452267634
  0.9587296522260684  0.4299068536918123  0.9907503548405676
  0.5412703477671956  0.0700931313681812  0.4907503547900697
  0.9299068537120342  0.0412703440406191  0.7407503548153220
  0.5700931462812299  0.4587296522732415  0.2407503548489807
 -0.0000000000000000 -0.0000000000000000  0.1985343513947230
  0.5000000000202149  0.5000000000202149  0.6985343364647779
 -0.0000000000000000  0.5000000000202149  0.4485343365236887
  0.5000000000202149 -0.0000000000000000  0.9485343364900306
  0.5000000000202149 -0.0000000000000000  0.5514656634931366
 -0.0000000000000000  0.5000000000202149  0.0514656486305226
  0.5000000000202149  0.5000000000202149  0.3014656634678913
 -0.0000000000000000 -0.0000000000000000  0.8014656635183893
  0.0388295232792208  0.9280808620629490  0.3776970232961953
  0.4611704729672449  0.5719191379303079  0.8776970232625301
  0.0719191453902040  0.5388294972201371  0.6276970233214412
  0.4280808620427337  0.9611705027731270  0.1276970232709427
  0.4611704729672449  0.9280808620629490  0.3723029766953919
  0.0388295232792208  0.5719191379303079  0.8723029767458899
  0.4280808620427337  0.5388294972201371  0.1223029767543029
  0.0719191453902040  0.9611705027731270  0.6223029767206372
  0.5388294972201371  0.4280808620427337  0.8776970232625301
  0.9611705027731270  0.0719191453902040  0.3776970232961953
  0.5719191379303079  0.0388295232792208  0.1276970232709427
  0.9280808620629490  0.4611704729672449  0.6276970233214412
  0.9611705027731270  0.4280808620427337  0.8723029767458899
  0.5388294972201371  0.0719191453902040  0.3723029766953919
  0.9280808620629490  0.0388295232792208  0.6223029767206372
  0.5719191379303079  0.4611704729672449  0.1223029767543029
 -0.0000000000000000 -0.0000000000000000  0.4379532859214983
  0.5000000000202149  0.5000000000202149  0.9379533157645560
 -0.0000000000000000  0.5000000000202149  0.6879533157393033
  0.5000000000202149 -0.0000000000000000  0.1879532859804093
  0.5000000000202149 -0.0000000000000000  0.3120467140700888
 -0.0000000000000000  0.5000000000202149  0.8120466842438639
  0.5000000000202149  0.5000000000202149  0.0620467140448362
 -0.0000000000000000 -0.0000000000000000  0.5620466842186113
  0.3174515002028324  0.7499999999966320  0.1249999999705409
  0.1825484998173897  0.7499999999966320  0.6250000000210392
  0.2499999999764171  0.8174515002230474  0.3749999999957936
  0.2499999999764171  0.6825484997702167  0.8749999999621281
  0.8174515002230474  0.2499999999764171  0.6250000000210392
  0.6825484997702167  0.2499999999764171  0.1249999999705409
  0.7499999999966320  0.3174515002028324  0.8749999999621281
  0.7499999999966320  0.1825484998173897  0.3749999999957936
 -0.0000000000000000 -0.0000000000000000  0.1053667897341497
  0.5000000000202149  0.5000000000202149  0.6053668120869857
 -0.0000000000000000  0.5000000000202149  0.3553667822691735
  0.5000000000202149 -0.0000000000000000  0.8553668120280746
  0.5000000000202149 -0.0000000000000000  0.6446331879550926
 -0.0000000000000000  0.5000000000202149  0.1446332177813177
  0.5000000000202149  0.5000000000202149  0.3946332177224066
 -0.0000000000000000 -0.0000000000000000  0.8946331879803453
  0.0679230357658987  0.8691285179076496  0.4217986083714883
  0.4320769642543161  0.6308714820856074  0.9217986083378301
  0.1308714970256140  0.5679230059330656  0.6717986083125774
  0.3691285178874348  0.9320769940601985  0.1717986083462429
  0.4320769642543161  0.8691285179076496  0.3282013917042556
  0.0679230357658987  0.6308714820856074  0.8282013916705898
  0.3691285178874348  0.5679230059330656  0.0782013916790027
  0.1308714970256140  0.9320769940601985  0.5782013916453442
  0.5679230059330656  0.3691285178874348  0.9217986083378301
  0.9320769940601985  0.1308714970256140  0.4217986083714883
  0.6308714820856074  0.0679230357658987  0.1717986083462429
  0.8691285179076496  0.4320769642543161  0.6717986083125774
  0.9320769940601985  0.3691285178874348  0.8282013916705898
  0.5679230059330656  0.1308714970256140  0.3282013917042556
  0.8691285179076496  0.0679230357658987  0.5782013916453442
  0.6308714820856074  0.4320769642543161  0.0782013916790027
  0.2513383598088156  0.7499999999966320  0.1249999999705409
  0.2486616252511780  0.7499999999966320  0.6250000000210392
  0.2499999999764171  0.7513383747218640  0.3749999999957936
  0.2499999999764171  0.7486616252714000  0.8749999999621281
  0.7513383747218640  0.2499999999764171  0.6250000000210392
  0.7486616252714000  0.2499999999764171  0.1249999999705409
  0.7499999999966320  0.2513383598088156  0.8749999999621281
  0.7499999999966320  0.2486616252511780  0.3749999999957936
  0.1250972381656239  0.8785297742143858  0.1037450294214887
  0.3749027618545910  0.6214702257788782  0.6037450368780446
  0.1214702481316006  0.6250972381184435  0.3537450369369562
  0.3785297444085035  0.8749027618748205  0.8537450369032902
  0.3749027618545910  0.8785297742143858  0.6462549630798771
  0.1250972381656239  0.6214702257788782  0.1462549631135422
  0.3785297444085035  0.6250972381184435  0.3962549630546309
  0.1214702481316006  0.8749027618748205  0.8962549631051226
  0.6250972381184435  0.3785297444085035  0.6037450368780446
  0.8749027618748205  0.1214702481316006  0.1037450294214887
  0.6214702257788782  0.1250972381656239  0.8537450369032902
  0.8785297742143858  0.3749027618545910  0.3537450369369562
  0.8749027618748205  0.3785297444085035  0.1462549631135422
  0.6250972381184435  0.1214702481316006  0.6462549630798771
  0.8785297742143858  0.1250972381656239  0.8962549631051226
  0.6214702257788782  0.3749027618545910  0.3962549630546309
  0.1034242905799871  0.7832036817065016  0.2530396364687866
  0.3965757168529508  0.7167963182867625  0.7530396365192848
  0.2167963331593742  0.6034243129731469  0.5030396364940322
  0.2832036817536744  0.8965756870201100  0.0030396365276978
  0.3965757168529508  0.7832036817065016  0.4969603635227934
  0.1034242905799871  0.7167963182867625  0.9969603634891351
  0.2832036817536744  0.6034243129731469  0.2469603634975478
  0.2167963331593742  0.8965756870201100  0.7469603634638824
  0.6034243129731469  0.2832036817536744  0.7530396365192848
  0.8965756870201100  0.2167963331593742  0.2530396364687866
  0.7167963182867625  0.1034242905799871  0.0030396365276978
  0.7832036817065016  0.3965757168529508  0.5030396364940322
  0.8965756870201100  0.2832036817536744  0.9969603634891351
  0.6034243129731469  0.2167963331593742  0.4969603635227934
  0.7832036817065016  0.1034242905799871  0.7469603634638824
  0.7167963182867625  0.3965757168529508  0.2469603634975478
 
  0.00000000E+00  0.00000000E+00  0.00000000E+00
  0.00000000E+00  0.00000000E+00  0.00000000E+00
  0.00000000E+00  0.00000000E+00  0.00000000E+00
  0.00000000E+00  0.00000000E+00  0.00000000E+00
  0.00000000E+00  0.00000000E+00  0.00000000E+00
  0.00000000E+00  0.00000000E+00  0.00000000E+00
  0.00000000E+00  0.00000000E+00  0.00000000E+00
  0.00000000E+00  0.00000000E+00  0.00000000E+00
  0.00000000E+00  0.00000000E+00  0.00000000E+00
  0.00000000E+00  0.00000000E+00  0.00000000E+00
  0.00000000E+00  0.00000000E+00  0.00000000E+00
  0.00000000E+00  0.00000000E+00  0.00000000E+00
  0.00000000E+00  0.00000000E+00  0.00000000E+00
  0.00000000E+00  0.00000000E+00  0.00000000E+00
  0.00000000E+00  0.00000000E+00  0.00000000E+00
  0.00000000E+00  0.00000000E+00  0.00000000E+00
  0.00000000E+00  0.00000000E+00  0.00000000E+00
  0.00000000E+00  0.00000000E+00  0.00000000E+00
  0.00000000E+00  0.00000000E+00  0.00000000E+00
  0.00000000E+00  0.00000000E+00  0.00000000E+00
  0.00000000E+00  0.00000000E+00  0.00000000E+00
  0.00000000E+00  0.00000000E+00  0.00000000E+00
  0.00000000E+00  0.00000000E+00  0.00000000E+00
  0.00000000E+00  0.00000000E+00  0.00000000E+00
  0.00000000E+00  0.00000000E+00  0.00000000E+00
  0.00000000E+00  0.00000000E+00  0.00000000E+00
  0.00000000E+00  0.00000000E+00  0.00000000E+00
  0.00000000E+00  0.00000000E+00  0.00000000E+00
  0.00000000E+00  0.00000000E+00  0.00000000E+00
  0.00000000E+00  0.00000000E+00  0.00000000E+00
  0.00000000E+00  0.00000000E+00  0.00000000E+00
  0.00000000E+00  0.00000000E+00  0.00000000E+00
  0.00000000E+00  0.00000000E+00  0.00000000E+00
  0.00000000E+00  0.00000000E+00  0.00000000E+00
  0.00000000E+00  0.00000000E+00  0.00000000E+00
  0.00000000E+00  0.00000000E+00  0.00000000E+00
  0.00000000E+00  0.00000000E+00  0.00000000E+00
  0.00000000E+00  0.00000000E+00  0.00000000E+00
  0.00000000E+00  0.00000000E+00  0.00000000E+00
  0.00000000E+00  0.00000000E+00  0.00000000E+00
  0.00000000E+00  0.00000000E+00  0.00000000E+00
  0.00000000E+00  0.00000000E+00  0.00000000E+00
  0.00000000E+00  0.00000000E+00  0.00000000E+00
  0.00000000E+00  0.00000000E+00  0.00000000E+00
  0.00000000E+00  0.00000000E+00  0.00000000E+00
  0.00000000E+00  0.00000000E+00  0.00000000E+00
  0.00000000E+00  0.00000000E+00  0.00000000E+00
  0.00000000E+00  0.00000000E+00  0.00000000E+00
  0.00000000E+00  0.00000000E+00  0.00000000E+00
  0.00000000E+00  0.00000000E+00  0.00000000E+00
  0.00000000E+00  0.00000000E+00  0.00000000E+00
  0.00000000E+00  0.00000000E+00  0.00000000E+00
  0.00000000E+00  0.00000000E+00  0.00000000E+00
  0.00000000E+00  0.00000000E+00  0.00000000E+00
  0.00000000E+00  0.00000000E+00  0.00000000E+00
  0.00000000E+00  0.00000000E+00  0.00000000E+00
  0.00000000E+00  0.00000000E+00  0.00000000E+00
  0.00000000E+00  0.00000000E+00  0.00000000E+00
  0.00000000E+00  0.00000000E+00  0.00000000E+00
  0.00000000E+00  0.00000000E+00  0.00000000E+00
  0.00000000E+00  0.00000000E+00  0.00000000E+00
  0.00000000E+00  0.00000000E+00  0.00000000E+00
  0.00000000E+00  0.00000000E+00  0.00000000E+00
  0.00000000E+00  0.00000000E+00  0.00000000E+00
  0.00000000E+00  0.00000000E+00  0.00000000E+00
  0.00000000E+00  0.00000000E+00  0.00000000E+00
  0.00000000E+00  0.00000000E+00  0.00000000E+00
  0.00000000E+00  0.00000000E+00  0.00000000E+00
  0.00000000E+00  0.00000000E+00  0.00000000E+00
  0.00000000E+00  0.00000000E+00  0.00000000E+00
  0.00000000E+00  0.00000000E+00  0.00000000E+00
  0.00000000E+00  0.00000000E+00  0.00000000E+00
  0.00000000E+00  0.00000000E+00  0.00000000E+00
  0.00000000E+00  0.00000000E+00  0.00000000E+00
  0.00000000E+00  0.00000000E+00  0.00000000E+00
  0.00000000E+00  0.00000000E+00  0.00000000E+00
  0.00000000E+00  0.00000000E+00  0.00000000E+00
  0.00000000E+00  0.00000000E+00  0.00000000E+00
  0.00000000E+00  0.00000000E+00  0.00000000E+00
  0.00000000E+00  0.00000000E+00  0.00000000E+00
  0.00000000E+00  0.00000000E+00  0.00000000E+00
  0.00000000E+00  0.00000000E+00  0.00000000E+00
  0.00000000E+00  0.00000000E+00  0.00000000E+00
  0.00000000E+00  0.00000000E+00  0.00000000E+00
  0.00000000E+00  0.00000000E+00  0.00000000E+00
  0.00000000E+00  0.00000000E+00  0.00000000E+00
  0.00000000E+00  0.00000000E+00  0.00000000E+00
  0.00000000E+00  0.00000000E+00  0.00000000E+00
  0.00000000E+00  0.00000000E+00  0.00000000E+00
  0.00000000E+00  0.00000000E+00  0.00000000E+00
  0.00000000E+00  0.00000000E+00  0.00000000E+00
  0.00000000E+00  0.00000000E+00  0.00000000E+00
  0.00000000E+00  0.00000000E+00  0.00000000E+00
  0.00000000E+00  0.00000000E+00  0.00000000E+00
  0.00000000E+00  0.00000000E+00  0.00000000E+00
  0.00000000E+00  0.00000000E+00  0.00000000E+00
  0.00000000E+00  0.00000000E+00  0.00000000E+00
  0.00000000E+00  0.00000000E+00  0.00000000E+00
  0.00000000E+00  0.00000000E+00  0.00000000E+00
  0.00000000E+00  0.00000000E+00  0.00000000E+00
  0.00000000E+00  0.00000000E+00  0.00000000E+00
  0.00000000E+00  0.00000000E+00  0.00000000E+00
  0.00000000E+00  0.00000000E+00  0.00000000E+00
  0.00000000E+00  0.00000000E+00  0.00000000E+00
  0.00000000E+00  0.00000000E+00  0.00000000E+00
  0.00000000E+00  0.00000000E+00  0.00000000E+00
  0.00000000E+00  0.00000000E+00  0.00000000E+00
  0.00000000E+00  0.00000000E+00  0.00000000E+00
  0.00000000E+00  0.00000000E+00  0.00000000E+00
  0.00000000E+00  0.00000000E+00  0.00000000E+00
  0.00000000E+00  0.00000000E+00  0.00000000E+00
  0.00000000E+00  0.00000000E+00  0.00000000E+00
  0.00000000E+00  0.00000000E+00  0.00000000E+00
  0.00000000E+00  0.00000000E+00  0.00000000E+00
  0.00000000E+00  0.00000000E+00  0.00000000E+00
  0.00000000E+00  0.00000000E+00  0.00000000E+00
  0.00000000E+00  0.00000000E+00  0.00000000E+00
  0.00000000E+00  0.00000000E+00  0.00000000E+00
  0.00000000E+00  0.00000000E+00  0.00000000E+00
  0.00000000E+00  0.00000000E+00  0.00000000E+00
  0.00000000E+00  0.00000000E+00  0.00000000E+00
  0.00000000E+00  0.00000000E+00  0.00000000E+00
  0.00000000E+00  0.00000000E+00  0.00000000E+00
  0.00000000E+00  0.00000000E+00  0.00000000E+00
  0.00000000E+00  0.00000000E+00  0.00000000E+00
  0.00000000E+00  0.00000000E+00  0.00000000E+00
  0.00000000E+00  0.00000000E+00  0.00000000E+00
  0.00000000E+00  0.00000000E+00  0.00000000E+00
  0.00000000E+00  0.00000000E+00  0.00000000E+00
  0.00000000E+00  0.00000000E+00  0.00000000E+00
  0.00000000E+00  0.00000000E+00  0.00000000E+00
  0.00000000E+00  0.00000000E+00  0.00000000E+00
  0.00000000E+00  0.00000000E+00  0.00000000E+00
  0.00000000E+00  0.00000000E+00  0.00000000E+00
  0.00000000E+00  0.00000000E+00  0.00000000E+00
  0.00000000E+00  0.00000000E+00  0.00000000E+00
  0.00000000E+00  0.00000000E+00  0.00000000E+00
  0.00000000E+00  0.00000000E+00  0.00000000E+00
  0.00000000E+00  0.00000000E+00  0.00000000E+00
  0.00000000E+00  0.00000000E+00  0.00000000E+00
  0.00000000E+00  0.00000000E+00  0.00000000E+00
  0.00000000E+00  0.00000000E+00  0.00000000E+00
  0.00000000E+00  0.00000000E+00  0.00000000E+00
  0.00000000E+00  0.00000000E+00  0.00000000E+00
