IRMOF-10                                
   1.00000000000000     
    24.2670695119026689    0.0145272081620323    0.0062866959075635
    12.1460971418551029   21.1455761408663498   -0.0371194580344220
    12.1429001788468831    7.0150875458673569   19.8126286098889963
   C    H    O    Zn
    84    48    26     8
Direct
  0.1433170759800293  0.1496635660413635  0.3583490598042186
  0.3531036220494159  0.3534747505128212  0.1499309944206941
  0.3533465603247853  0.1418024713138913  0.1491000236558069
  0.1413114276384292  0.3539101809828020  0.3547737228803317
  0.1531692613052324  0.3514666074232206  0.1391037694381296
  0.3545262106108794  0.1466664422640593  0.3532746326913310
  0.8513973501943399  0.8574012704098736  0.6500131763273144
  0.6433272957479261  0.6478755168066314  0.8577946055803802
  0.6465585476271243  0.8548962262652726  0.6457361592372091
  0.8608407488916399  0.6434483539270914  0.8465156183028870
  0.8497327685125600  0.6482106327114570  0.6449461753752214
  0.6460220754355331  0.8494401322230379  0.8569475349228821
  0.0993565854634790  0.1074453269156436  0.4044281762757543
  0.3960912708623391  0.3967507885728154  0.1077137822622691
  0.3962764855443092  0.0978755449281776  0.1067673612032290
  0.0972858156561605  0.3969069188895931  0.3980259762053012
  0.1115692728051358  0.3939266421654371  0.0944063676186464
  0.3964150377705639  0.1036730386725347  0.3976432530617741
  0.8939415804727353  0.9010144298338008  0.6095952765958693
  0.5998330267067361  0.6051026684298522  0.9017396196604301
  0.6021792125966072  0.8982667254473405  0.6038693675383867
  0.9056365368352485  0.5986942896851707  0.8879667675037419
  0.8918788182416514  0.6051207711005807  0.6017813616871931
  0.6024030178689503  0.8917159046003728  0.9009376082423576
  0.0172119623900224  0.0263868495284169  0.4889331256969873
  0.4769211290240544  0.4792165294797998  0.0269290604341161
  0.4778764881386394  0.0154269399601120  0.0259385368223297
  0.0149998138596506  0.4792494563846372  0.4789469701938419
  0.0314284442879985  0.4740338091038094  0.0111210989513550
  0.4760741256463362  0.0223690094438317  0.4812348278191050
  0.9747865908180907  0.9833484957132452  0.5312723261034262
  0.5188831151554002  0.5227319790491175  0.9841826651787707
  0.5187406921460025  0.9798790419915083  0.5240494295761112
  0.9888159108383582  0.5160388474614145  0.9681957718644155
  0.9724090216104305  0.5227566917783324  0.5208968103595145
  0.5204715620947986  0.9726241616960980  0.9832673103066434
  0.0302964635645088  0.1351460540907847  0.4140547994051052
  0.1271363298868665  0.0393644517432363  0.4378160854189932
  0.4315899967974319  0.4029834207826539  0.0395426816332800
  0.4013041578853551  0.4315366995127852  0.1355445787243330
  0.4049814160004416  0.0293604978965940  0.1353680750062017
  0.4285030088051687  0.1250725481949728  0.0377232738641937
  0.0291143291490998  0.4310744210597194  0.4041522649527227
  0.1241739654644233  0.4036779141146928  0.4326831881746869
  0.1408419550931488  0.4032194586421989  0.0253369494814199
  0.0422311736063182  0.4249125630820954  0.1217133479711259
  0.4276686617032496  0.0349773645108062  0.4073297307175457
  0.4047142678361211  0.1316127288728632  0.4300934395987476
  0.9624818038479458  0.8748050428594710  0.5750380833828207
  0.8659430616742443  0.9683438106052615  0.6053160034373007
  0.5691262877072782  0.5943424744955093  0.8739147585078189
  0.5897423508277531  0.5749032248671039  0.9708955307757217
  0.5957195676362024  0.9661448548086119  0.5695473042395532
  0.5665203192860646  0.8713448605543054  0.5986205650297615
  0.9738614774143711  0.5927071044410674  0.8600647591753745
  0.8792566625098227  0.5626760837258684  0.9558179011469903
  0.8630340286193400  0.5737082720288295  0.5932846797682731
  0.9609596422122214  0.5955834227673032  0.5695163576418495
  0.5660597335633625  0.9590191361954280  0.8744688177668942
  0.5975599154745512  0.8648402388606886  0.9686779147839273
  0.9898537898934022  0.0949461157862258  0.4555940484392664
  0.0864117608680511  0.9995233614335973  0.4798351412994279
  0.4719402880045561  0.4432143974250435  0.9999255587252791
  0.4408021268058607  0.4726889294227608  0.0954146635814262
  0.4451214629422723  0.9887580182871329  0.0953020957400303
  0.4689776392334187  0.0842473028926750  0.9979700221270712
  0.9886671272943296  0.4721140869622274  0.4437631630966599
  0.0833484456166649  0.4439158148374727  0.4730256492616622
  0.1010840261045551  0.4424191946506255  0.9843733547016205
  0.0029006361431570  0.4648237929066013  0.0804644587048050
  0.4673059537200757  0.9949792140044407  0.4483276188786543
  0.4437373911929043  0.0912938426960464  0.4716989927860425
  0.0022230461099673  0.9156192832145325  0.5361122265334580
  0.9060659290949256  0.0088389158947601  0.5669003188316216
  0.5287663140916817  0.5541096876725664  0.9147847977192751
  0.5501461633739787  0.5338517238144344  0.0114399051589988
  0.5548639195770700  0.0062478525661693  0.5297476620033424
  0.5249285794696660  0.9118508362522106  0.5596013132952610
  0.0147325635349580  0.5522658861035423  0.8999182405985855
  0.9205246682536494  0.5214439833045315  0.9951213098350234
  0.9029885934987384  0.5326749459183361  0.5536804510870935
  0.0005168012284486  0.5553112588937342  0.5292125485186959
  0.5253242443359633  0.9987695053417056  0.9153034907063673
  0.5573177834034996  0.9050013050128136  0.0091858500650980
  0.0094981477981054  0.1884252789312358  0.3874380337451452
  0.1811087732819225  0.0187225821921044  0.4301752170497389
  0.4272681542895071  0.3750774429148128  0.0187437442918670
  0.3730632882642347  0.4262470397842875  0.1888878803228060
  0.3791510114115250  0.0089968634756640  0.1893550209025614
  0.4214862940431953  0.1786428813357178  0.0163323681278826
  0.0089817286803584  0.4253829687070015  0.3765270230294674
  0.1774693480444484  0.3762385417313680  0.4276410052512277
  0.1950805939938213  0.3784675024288423  0.0047946040057733
  0.0202581463734872  0.4174567634600804  0.1757256951674786
  0.4207601537397654  0.0140439859166217  0.3814110986468893
  0.3794602529545701  0.1853248687227497  0.4223275498926907
  0.9834030771998342  0.8221342888547665  0.5787667445151867
  0.8123774026034724  0.9878755732051671  0.6330571921526160
  0.5772412146672130  0.6186536903708134  0.8198215075742596
  0.6143255711496151  0.5836784277271915  0.9917553242064897
  0.6240733930475737  0.9863132025913751  0.5741174080048633
  0.5717677259328147  0.8182960342746353  0.6262732431904177
  0.9936909098926439  0.6212487845189446  0.8069541162725683
  0.8259453566393437  0.5675085338778879  0.9766666116842309
  0.8089829070151319  0.5815558054034837  0.6190555387093223
  0.9825519365121165  0.6208974849062858  0.5763742548958749
  0.5701227319286230  0.9790265308908735  0.8215171596137593
  0.6265847976574382  0.8122158328342495  0.9884107408187297
  0.9363127086146833  0.1164159965783094  0.4610780044038343
  0.1081585977718141  0.9466442934269027  0.5069784424096649
  0.5012445176056064  0.4461133028170383  0.9471966273749152
  0.4427990191553171  0.5015322640091493  0.1169843845001055
  0.4503076223678977  0.9355366956971493  0.1176238220200840
  0.4954774058675828  0.1055251259466178  0.9443594006121022
  0.9359354904568962  0.5004468603051785  0.4465413044356929
  0.1042495646242870  0.4473420138899903  0.5015982095369358
  0.1239957197807919  0.4477565966752868  0.9307680267582700
  0.9491017855656716  0.4905672460988713  0.1018935485773914
  0.4933900473984969  0.9416776411768988  0.4539661466794894
  0.4485451219245785  0.1131226408547248  0.4983830260411956
  0.0552713625549318  0.8953580287198225  0.5074168477099577
  0.8842701662716407  0.0610398107888002  0.5650763949310572
  0.5033009858762088  0.5475660948346495  0.8929830744250563
  0.5442953901016906  0.5086580776537181  0.0650923499558793
  0.5518295901817728  0.0587566918919495  0.5011791889784880
  0.4956801144456111  0.8909236810402341  0.5572697670539331
  0.0674548993773244  0.5497615048052801  0.8783586601819946
  0.8999138531217370  0.4919671893130640  0.0476089970759960
  0.8804933552425512  0.5065510828063440  0.5489997234081541
  0.0541231467320887  0.5496836458205564  0.5025414887365097
  0.4955487280297725  0.0508556523152068  0.8947935428181871
  0.5553044369049376  0.8842396398745561  0.0616073811345024
  0.1144684279984528  0.2122304491442447  0.3332417582293370
  0.2064725898207121  0.1197387330224466  0.3474301979271519
  0.3429919549085128  0.3314619649662027  0.1191424122598893
  0.3298465644907608  0.3419278344500304  0.2133565515218519
  0.3284359278916407  0.1137801571273856  0.2123366298543101
  0.3448941019178718  0.2041762568352979  0.1187335765073816
  0.1127905473613629  0.3427368024500011  0.3311437317773681
  0.2042980351057995  0.3316702480487670  0.3446784185315319
  0.2170194217436330  0.3311173776533260  0.1109582829518302
  0.1213495007473548  0.3388858589961509  0.2022199616281638
  0.3432950603375313  0.1171172560105449  0.3308983311268509
  0.3332243269437539  0.2096428440221852  0.3411501725020019
  0.8814973456172882  0.7955002645501448  0.6559476825526979
  0.7881916164583879  0.8852401227148375  0.6753673757867363
  0.6572792691832513  0.6664225353154970  0.7944558746049888
  0.6633434351846490  0.6624385354580820  0.8868348069053958
  0.6710000127436009  0.8838050825586063  0.6553901536677678
  0.6566551622104448  0.7922027702911674  0.6686106517920801
  0.8887695938118279  0.6677896209564819  0.7831410782788152
  0.7978375479075317  0.6540226769454728  0.8779482506520160
  0.7861193930204406  0.6613803032284338  0.6665952223952376
  0.8807646989596081  0.6684105685532052  0.6568277171077354
  0.6525561712691414  0.8789524591615447  0.7945599380158626
  0.6734444190810913  0.7871910074170620  0.8849072799159954
  0.2500221223181278  0.2497329248580316  0.2498432718070798
  0.7502124630113098  0.7501842412252827  0.7497235766692528
  0.1521620980963682  0.2843486630541625  0.2791521201276256
  0.2816583987046144  0.1523152374195528  0.2835743308102612
  0.2867966970163461  0.2792445358458305  0.1520289296968023
  0.2795041423117079  0.2825011089692196  0.2853884099611085
  0.8480302205824333  0.7205123690891411  0.7130569585385865
  0.7167792229730214  0.8476026808047865  0.7186108375573527
  0.7144079144621023  0.7182239485664815  0.7197619807322365
  0.7210180431384873  0.7151416065827609  0.8475404327579054
 
  0.00000000E+00  0.00000000E+00  0.00000000E+00
  0.00000000E+00  0.00000000E+00  0.00000000E+00
  0.00000000E+00  0.00000000E+00  0.00000000E+00
  0.00000000E+00  0.00000000E+00  0.00000000E+00
  0.00000000E+00  0.00000000E+00  0.00000000E+00
  0.00000000E+00  0.00000000E+00  0.00000000E+00
  0.00000000E+00  0.00000000E+00  0.00000000E+00
  0.00000000E+00  0.00000000E+00  0.00000000E+00
  0.00000000E+00  0.00000000E+00  0.00000000E+00
  0.00000000E+00  0.00000000E+00  0.00000000E+00
  0.00000000E+00  0.00000000E+00  0.00000000E+00
  0.00000000E+00  0.00000000E+00  0.00000000E+00
  0.00000000E+00  0.00000000E+00  0.00000000E+00
  0.00000000E+00  0.00000000E+00  0.00000000E+00
  0.00000000E+00  0.00000000E+00  0.00000000E+00
  0.00000000E+00  0.00000000E+00  0.00000000E+00
  0.00000000E+00  0.00000000E+00  0.00000000E+00
  0.00000000E+00  0.00000000E+00  0.00000000E+00
  0.00000000E+00  0.00000000E+00  0.00000000E+00
  0.00000000E+00  0.00000000E+00  0.00000000E+00
  0.00000000E+00  0.00000000E+00  0.00000000E+00
  0.00000000E+00  0.00000000E+00  0.00000000E+00
  0.00000000E+00  0.00000000E+00  0.00000000E+00
  0.00000000E+00  0.00000000E+00  0.00000000E+00
  0.00000000E+00  0.00000000E+00  0.00000000E+00
  0.00000000E+00  0.00000000E+00  0.00000000E+00
  0.00000000E+00  0.00000000E+00  0.00000000E+00
  0.00000000E+00  0.00000000E+00  0.00000000E+00
  0.00000000E+00  0.00000000E+00  0.00000000E+00
  0.00000000E+00  0.00000000E+00  0.00000000E+00
  0.00000000E+00  0.00000000E+00  0.00000000E+00
  0.00000000E+00  0.00000000E+00  0.00000000E+00
  0.00000000E+00  0.00000000E+00  0.00000000E+00
  0.00000000E+00  0.00000000E+00  0.00000000E+00
  0.00000000E+00  0.00000000E+00  0.00000000E+00
  0.00000000E+00  0.00000000E+00  0.00000000E+00
  0.00000000E+00  0.00000000E+00  0.00000000E+00
  0.00000000E+00  0.00000000E+00  0.00000000E+00
  0.00000000E+00  0.00000000E+00  0.00000000E+00
  0.00000000E+00  0.00000000E+00  0.00000000E+00
  0.00000000E+00  0.00000000E+00  0.00000000E+00
  0.00000000E+00  0.00000000E+00  0.00000000E+00
  0.00000000E+00  0.00000000E+00  0.00000000E+00
  0.00000000E+00  0.00000000E+00  0.00000000E+00
  0.00000000E+00  0.00000000E+00  0.00000000E+00
  0.00000000E+00  0.00000000E+00  0.00000000E+00
  0.00000000E+00  0.00000000E+00  0.00000000E+00
  0.00000000E+00  0.00000000E+00  0.00000000E+00
  0.00000000E+00  0.00000000E+00  0.00000000E+00
  0.00000000E+00  0.00000000E+00  0.00000000E+00
  0.00000000E+00  0.00000000E+00  0.00000000E+00
  0.00000000E+00  0.00000000E+00  0.00000000E+00
  0.00000000E+00  0.00000000E+00  0.00000000E+00
  0.00000000E+00  0.00000000E+00  0.00000000E+00
  0.00000000E+00  0.00000000E+00  0.00000000E+00
  0.00000000E+00  0.00000000E+00  0.00000000E+00
  0.00000000E+00  0.00000000E+00  0.00000000E+00
  0.00000000E+00  0.00000000E+00  0.00000000E+00
  0.00000000E+00  0.00000000E+00  0.00000000E+00
  0.00000000E+00  0.00000000E+00  0.00000000E+00
  0.00000000E+00  0.00000000E+00  0.00000000E+00
  0.00000000E+00  0.00000000E+00  0.00000000E+00
  0.00000000E+00  0.00000000E+00  0.00000000E+00
  0.00000000E+00  0.00000000E+00  0.00000000E+00
  0.00000000E+00  0.00000000E+00  0.00000000E+00
  0.00000000E+00  0.00000000E+00  0.00000000E+00
  0.00000000E+00  0.00000000E+00  0.00000000E+00
  0.00000000E+00  0.00000000E+00  0.00000000E+00
  0.00000000E+00  0.00000000E+00  0.00000000E+00
  0.00000000E+00  0.00000000E+00  0.00000000E+00
  0.00000000E+00  0.00000000E+00  0.00000000E+00
  0.00000000E+00  0.00000000E+00  0.00000000E+00
  0.00000000E+00  0.00000000E+00  0.00000000E+00
  0.00000000E+00  0.00000000E+00  0.00000000E+00
  0.00000000E+00  0.00000000E+00  0.00000000E+00
  0.00000000E+00  0.00000000E+00  0.00000000E+00
  0.00000000E+00  0.00000000E+00  0.00000000E+00
  0.00000000E+00  0.00000000E+00  0.00000000E+00
  0.00000000E+00  0.00000000E+00  0.00000000E+00
  0.00000000E+00  0.00000000E+00  0.00000000E+00
  0.00000000E+00  0.00000000E+00  0.00000000E+00
  0.00000000E+00  0.00000000E+00  0.00000000E+00
  0.00000000E+00  0.00000000E+00  0.00000000E+00
  0.00000000E+00  0.00000000E+00  0.00000000E+00
  0.00000000E+00  0.00000000E+00  0.00000000E+00
  0.00000000E+00  0.00000000E+00  0.00000000E+00
  0.00000000E+00  0.00000000E+00  0.00000000E+00
  0.00000000E+00  0.00000000E+00  0.00000000E+00
  0.00000000E+00  0.00000000E+00  0.00000000E+00
  0.00000000E+00  0.00000000E+00  0.00000000E+00
  0.00000000E+00  0.00000000E+00  0.00000000E+00
  0.00000000E+00  0.00000000E+00  0.00000000E+00
  0.00000000E+00  0.00000000E+00  0.00000000E+00
  0.00000000E+00  0.00000000E+00  0.00000000E+00
  0.00000000E+00  0.00000000E+00  0.00000000E+00
  0.00000000E+00  0.00000000E+00  0.00000000E+00
  0.00000000E+00  0.00000000E+00  0.00000000E+00
  0.00000000E+00  0.00000000E+00  0.00000000E+00
  0.00000000E+00  0.00000000E+00  0.00000000E+00
  0.00000000E+00  0.00000000E+00  0.00000000E+00
  0.00000000E+00  0.00000000E+00  0.00000000E+00
  0.00000000E+00  0.00000000E+00  0.00000000E+00
  0.00000000E+00  0.00000000E+00  0.00000000E+00
  0.00000000E+00  0.00000000E+00  0.00000000E+00
  0.00000000E+00  0.00000000E+00  0.00000000E+00
  0.00000000E+00  0.00000000E+00  0.00000000E+00
  0.00000000E+00  0.00000000E+00  0.00000000E+00
  0.00000000E+00  0.00000000E+00  0.00000000E+00
  0.00000000E+00  0.00000000E+00  0.00000000E+00
  0.00000000E+00  0.00000000E+00  0.00000000E+00
  0.00000000E+00  0.00000000E+00  0.00000000E+00
  0.00000000E+00  0.00000000E+00  0.00000000E+00
  0.00000000E+00  0.00000000E+00  0.00000000E+00
  0.00000000E+00  0.00000000E+00  0.00000000E+00
  0.00000000E+00  0.00000000E+00  0.00000000E+00
  0.00000000E+00  0.00000000E+00  0.00000000E+00
  0.00000000E+00  0.00000000E+00  0.00000000E+00
  0.00000000E+00  0.00000000E+00  0.00000000E+00
  0.00000000E+00  0.00000000E+00  0.00000000E+00
  0.00000000E+00  0.00000000E+00  0.00000000E+00
  0.00000000E+00  0.00000000E+00  0.00000000E+00
  0.00000000E+00  0.00000000E+00  0.00000000E+00
  0.00000000E+00  0.00000000E+00  0.00000000E+00
  0.00000000E+00  0.00000000E+00  0.00000000E+00
  0.00000000E+00  0.00000000E+00  0.00000000E+00
  0.00000000E+00  0.00000000E+00  0.00000000E+00
  0.00000000E+00  0.00000000E+00  0.00000000E+00
  0.00000000E+00  0.00000000E+00  0.00000000E+00
  0.00000000E+00  0.00000000E+00  0.00000000E+00
  0.00000000E+00  0.00000000E+00  0.00000000E+00
  0.00000000E+00  0.00000000E+00  0.00000000E+00
  0.00000000E+00  0.00000000E+00  0.00000000E+00
  0.00000000E+00  0.00000000E+00  0.00000000E+00
  0.00000000E+00  0.00000000E+00  0.00000000E+00
  0.00000000E+00  0.00000000E+00  0.00000000E+00
  0.00000000E+00  0.00000000E+00  0.00000000E+00
  0.00000000E+00  0.00000000E+00  0.00000000E+00
  0.00000000E+00  0.00000000E+00  0.00000000E+00
  0.00000000E+00  0.00000000E+00  0.00000000E+00
  0.00000000E+00  0.00000000E+00  0.00000000E+00
  0.00000000E+00  0.00000000E+00  0.00000000E+00
  0.00000000E+00  0.00000000E+00  0.00000000E+00
  0.00000000E+00  0.00000000E+00  0.00000000E+00
  0.00000000E+00  0.00000000E+00  0.00000000E+00
  0.00000000E+00  0.00000000E+00  0.00000000E+00
  0.00000000E+00  0.00000000E+00  0.00000000E+00
  0.00000000E+00  0.00000000E+00  0.00000000E+00
  0.00000000E+00  0.00000000E+00  0.00000000E+00
  0.00000000E+00  0.00000000E+00  0.00000000E+00
  0.00000000E+00  0.00000000E+00  0.00000000E+00
  0.00000000E+00  0.00000000E+00  0.00000000E+00
  0.00000000E+00  0.00000000E+00  0.00000000E+00
  0.00000000E+00  0.00000000E+00  0.00000000E+00
  0.00000000E+00  0.00000000E+00  0.00000000E+00
  0.00000000E+00  0.00000000E+00  0.00000000E+00
  0.00000000E+00  0.00000000E+00  0.00000000E+00
  0.00000000E+00  0.00000000E+00  0.00000000E+00
  0.00000000E+00  0.00000000E+00  0.00000000E+00
  0.00000000E+00  0.00000000E+00  0.00000000E+00
  0.00000000E+00  0.00000000E+00  0.00000000E+00
  0.00000000E+00  0.00000000E+00  0.00000000E+00
  0.00000000E+00  0.00000000E+00  0.00000000E+00
  0.00000000E+00  0.00000000E+00  0.00000000E+00
  0.00000000E+00  0.00000000E+00  0.00000000E+00
  0.00000000E+00  0.00000000E+00  0.00000000E+00
  0.00000000E+00  0.00000000E+00  0.00000000E+00
