# 
# Keywords:
# 
opti conv molmec phon comp prop  
# 
# Options:
# 
cell
  30.665688  30.665688  30.665688  90.000027  90.000027  90.000027
fractional  1   
C913  core 0.7489880 0.1344855 0.7489880 1.07050000 1.00000 0.00000             
C913  core 0.2489897 0.8692408 0.2489897 1.07050000 1.00000 0.00000             
C913  core 0.2489360 0.8693196 0.7489897 1.07050000 1.00000 0.00000             
C913  core 0.7489386 0.1345658 0.2489891 1.07050000 1.00000 0.00000             
C913  core 0.2489380 0.1344869 0.2489380 1.07050000 1.00000 0.00000             
C913  core 0.7489366 0.8692393 0.7489366 1.07050000 1.00000 0.00000             
C913  core 0.7489897 0.8693196 0.2489360 1.07050000 1.00000 0.00000             
C913  core 0.2489891 0.1345658 0.7489386 1.07050000 1.00000 0.00000             
C913  core 0.7489880 0.7519276 0.1315459 1.07050000 1.00000 0.00000             
C913  core 0.2489897 0.2519293 0.8663012 1.07050000 1.00000 0.00000             
C913  core 0.7489897 0.2518756 0.8663800 1.07050000 1.00000 0.00000             
C913  core 0.2489891 0.7518782 0.1316262 1.07050000 1.00000 0.00000             
C913  core 0.2489380 0.2518776 0.1315473 1.07050000 1.00000 0.00000             
C913  core 0.7489366 0.7518762 0.8662997 1.07050000 1.00000 0.00000             
C913  core 0.2489360 0.7519293 0.8663800 1.07050000 1.00000 0.00000             
C913  core 0.7489386 0.2519287 0.1316262 1.07050000 1.00000 0.00000             
C913  core 0.1315459 0.7519276 0.7489880 1.07050000 1.00000 0.00000             
C913  core 0.8663012 0.2519293 0.2489897 1.07050000 1.00000 0.00000             
C913  core 0.8663800 0.7519293 0.2489360 1.07050000 1.00000 0.00000             
C913  core 0.1316262 0.2519287 0.7489386 1.07050000 1.00000 0.00000             
C913  core 0.1315473 0.2518776 0.2489380 1.07050000 1.00000 0.00000             
C913  core 0.8662997 0.7518762 0.7489366 1.07050000 1.00000 0.00000             
C913  core 0.8663800 0.2518756 0.7489897 1.07050000 1.00000 0.00000             
C913  core 0.1316262 0.7518782 0.2489891 1.07050000 1.00000 0.00000             
C913  core 0.7489939 0.6345658 0.2489332 1.07050000 1.00000 0.00000             
C913  core 0.2489937 0.3693196 0.7489333 1.07050000 1.00000 0.00000             
C913  core 0.2489334 0.3692407 0.2489334 1.07050000 1.00000 0.00000             
C913  core 0.7489326 0.6344855 0.7489326 1.07050000 1.00000 0.00000             
C913  core 0.2489332 0.6345658 0.7489939 1.07050000 1.00000 0.00000             
C913  core 0.7489333 0.3693196 0.2489937 1.07050000 1.00000 0.00000             
C913  core 0.7489942 0.3692393 0.7489942 1.07050000 1.00000 0.00000             
C913  core 0.2489929 0.6344869 0.2489929 1.07050000 1.00000 0.00000             
C913  core 0.7489939 0.2518728 0.6316262 1.07050000 1.00000 0.00000             
C913  core 0.2489937 0.7518729 0.3663800 1.07050000 1.00000 0.00000             
C913  core 0.7489942 0.7519338 0.3662997 1.07050000 1.00000 0.00000             
C913  core 0.2489929 0.2519325 0.6315473 1.07050000 1.00000 0.00000             
C913  core 0.2489332 0.7519335 0.6316262 1.07050000 1.00000 0.00000             
C913  core 0.7489333 0.2519333 0.3663800 1.07050000 1.00000 0.00000             
C913  core 0.2489334 0.2518730 0.3663011 1.07050000 1.00000 0.00000             
C913  core 0.7489326 0.7518722 0.6315459 1.07050000 1.00000 0.00000             
C913  core 0.6316262 0.7519335 0.2489332 1.07050000 1.00000 0.00000             
C913  core 0.3663800 0.2519333 0.7489333 1.07050000 1.00000 0.00000             
C913  core 0.3662997 0.7519338 0.7489942 1.07050000 1.00000 0.00000             
C913  core 0.6315473 0.2519325 0.2489929 1.07050000 1.00000 0.00000             
C913  core 0.6316262 0.2518728 0.7489939 1.07050000 1.00000 0.00000             
C913  core 0.3663800 0.7518729 0.2489937 1.07050000 1.00000 0.00000             
C913  core 0.3663011 0.2518730 0.2489334 1.07050000 1.00000 0.00000             
C913  core 0.6315459 0.7518722 0.7489326 1.07050000 1.00000 0.00000             
C914  core 0.7489796 0.0854212 0.7489796 0.06400000 1.00000 0.00000             
C918  core 0.2489817 0.9183066 0.2489817 0.06300000 1.00000 0.00000             
C914  core 0.2489444 0.9183839 0.7489818 0.06400000 1.00000 0.00000             
C918  core 0.7489466 0.0855000 0.2489807 0.06300000 1.00000 0.00000             
C914  core 0.2489462 0.0854226 0.2489462 0.06400000 1.00000 0.00000             
C918  core 0.7489446 0.9183051 0.7489446 0.06300000 1.00000 0.00000             
C914  core 0.7489818 0.9183839 0.2489444 0.06400000 1.00000 0.00000             
C918  core 0.2489807 0.0855000 0.7489466 0.06300000 1.00000 0.00000             
C914  core 0.7489796 0.7519192 0.0824816 0.06400000 1.00000 0.00000             
C918  core 0.2489817 0.2519213 0.9153670 0.06300000 1.00000 0.00000             
C914  core 0.7489818 0.2518840 0.9154443 0.06400000 1.00000 0.00000             
C918  core 0.2489807 0.7518862 0.0825604 0.06300000 1.00000 0.00000             
C914  core 0.2489462 0.2518858 0.0824830 0.06400000 1.00000 0.00000             
C918  core 0.7489446 0.7518842 0.9153655 0.06300000 1.00000 0.00000             
C914  core 0.2489444 0.7519214 0.9154443 0.06400000 1.00000 0.00000             
C918  core 0.7489466 0.2519203 0.0825604 0.06300000 1.00000 0.00000             
C914  core 0.0824816 0.7519192 0.7489796 0.06400000 1.00000 0.00000             
C918  core 0.9153670 0.2519213 0.2489817 0.06300000 1.00000 0.00000             
C914  core 0.9154443 0.7519214 0.2489444 0.06400000 1.00000 0.00000             
C918  core 0.0825604 0.2519203 0.7489466 0.06300000 1.00000 0.00000             
C914  core 0.0824830 0.2518858 0.2489462 0.06400000 1.00000 0.00000             
C918  core 0.9153655 0.7518842 0.7489446 0.06300000 1.00000 0.00000             
C914  core 0.9154443 0.2518840 0.7489818 0.06400000 1.00000 0.00000             
C918  core 0.0825604 0.7518862 0.2489807 0.06300000 1.00000 0.00000             
C918  core 0.7489816 0.5855000 0.2489456 0.06300000 1.00000 0.00000             
C914  core 0.2489815 0.4183839 0.7489455 0.06400000 1.00000 0.00000             
C918  core 0.2489454 0.4183065 0.2489454 0.06300000 1.00000 0.00000             
C914  core 0.7489452 0.5854212 0.7489452 0.06400000 1.00000 0.00000             
C918  core 0.2489456 0.5855000 0.7489816 0.06300000 1.00000 0.00000             
C914  core 0.7489455 0.4183839 0.2489815 0.06400000 1.00000 0.00000             
C918  core 0.7489817 0.4183051 0.7489817 0.06300000 1.00000 0.00000             
C914  core 0.2489807 0.5854226 0.2489807 0.06400000 1.00000 0.00000             
C918  core 0.7489816 0.2518852 0.5825604 0.06300000 1.00000 0.00000             
C914  core 0.2489815 0.7518851 0.4154443 0.06400000 1.00000 0.00000             
C918  core 0.7489817 0.7519213 0.4153655 0.06300000 1.00000 0.00000             
C914  core 0.2489807 0.2519203 0.5824830 0.06400000 1.00000 0.00000             
C918  core 0.2489456 0.7519212 0.5825604 0.06300000 1.00000 0.00000             
C914  core 0.7489455 0.2519211 0.4154443 0.06400000 1.00000 0.00000             
C918  core 0.2489454 0.2518850 0.4153669 0.06300000 1.00000 0.00000             
C914  core 0.7489452 0.7518848 0.5824816 0.06400000 1.00000 0.00000             
C918  core 0.5825604 0.7519212 0.2489456 0.06300000 1.00000 0.00000             
C914  core 0.4154443 0.2519211 0.7489455 0.06400000 1.00000 0.00000             
C918  core 0.4153655 0.7519213 0.7489817 0.06300000 1.00000 0.00000             
C914  core 0.5824830 0.2519203 0.2489807 0.06400000 1.00000 0.00000             
C918  core 0.5825604 0.2518852 0.7489816 0.06300000 1.00000 0.00000             
C914  core 0.4154443 0.7518851 0.2489815 0.06400000 1.00000 0.00000             
C918  core 0.4153669 0.2518850 0.2489454 0.06300000 1.00000 0.00000             
C914  core 0.5824816 0.7518848 0.7489452 0.06400000 1.00000 0.00000             
C916  core 0.7225377 0.0612024 0.7225377 -0.0400000 1.00000 0.00000             
C919  core 0.2776390 0.9382648 0.2776390 -0.0530000 1.00000 0.00000             
C916  core 0.2753867 0.9426026 0.7225401 -0.0400000 1.00000 0.00000             
C919  core 0.7202895 0.0655417 0.2776381 -0.0530000 1.00000 0.00000             
C916  core 0.2753882 0.0612039 0.2753882 -0.0400000 1.00000 0.00000             
C919  core 0.7202872 0.9382632 0.7202872 -0.0530000 1.00000 0.00000             
C916  core 0.7225401 0.9426026 0.2753867 -0.0400000 1.00000 0.00000             
C919  core 0.2776381 0.0655417 0.7202895 -0.0530000 1.00000 0.00000             
C916  core 0.7225377 0.7254773 0.0582628 -0.0400000 1.00000 0.00000             
C919  core 0.2776390 0.2805786 0.9353252 -0.0530000 1.00000 0.00000             
C916  core 0.7225401 0.2783264 0.9396630 -0.0400000 1.00000 0.00000             
C919  core 0.2776381 0.7232291 0.0626020 -0.0530000 1.00000 0.00000             
C916  core 0.2753882 0.2783278 0.0582643 -0.0400000 1.00000 0.00000             
C919  core 0.7202872 0.7232268 0.9353236 -0.0530000 1.00000 0.00000             
C916  core 0.2753867 0.7254797 0.9396630 -0.0400000 1.00000 0.00000             
C919  core 0.7202895 0.2805777 0.0626020 -0.0530000 1.00000 0.00000             
C916  core 0.0582628 0.7254773 0.7225377 -0.0400000 1.00000 0.00000             
C919  core 0.9353252 0.2805786 0.2776390 -0.0530000 1.00000 0.00000             
C916  core 0.9396630 0.7254797 0.2753867 -0.0400000 1.00000 0.00000             
C919  core 0.0626020 0.2805777 0.7202895 -0.0530000 1.00000 0.00000             
C916  core 0.0582643 0.2783278 0.2753882 -0.0400000 1.00000 0.00000             
C919  core 0.9353236 0.7232268 0.7202872 -0.0530000 1.00000 0.00000             
C916  core 0.9396630 0.2783264 0.7225401 -0.0400000 1.00000 0.00000             
C919  core 0.0626020 0.7232291 0.2776381 -0.0530000 1.00000 0.00000             
C919  core 0.7203154 0.5655535 0.2202890 -0.0530000 1.00000 0.00000             
C916  core 0.2754127 0.4426133 0.7753885 -0.0400000 1.00000 0.00000             
C919  core 0.2776112 0.4382530 0.2202885 -0.0530000 1.00000 0.00000             
C916  core 0.7225138 0.5611917 0.7753880 -0.0400000 1.00000 0.00000             
C919  core 0.2776112 0.5655535 0.7776388 -0.0530000 1.00000 0.00000             
C916  core 0.7225138 0.4426133 0.2225390 -0.0400000 1.00000 0.00000             
C919  core 0.7203157 0.4382516 0.7776385 -0.0530000 1.00000 0.00000             
C916  core 0.2754122 0.5611932 0.2225381 -0.0400000 1.00000 0.00000             
C919  core 0.7203154 0.2232286 0.5626139 -0.0530000 1.00000 0.00000             
C916  core 0.2754127 0.7783281 0.4396737 -0.0400000 1.00000 0.00000             
C919  core 0.7203157 0.7805781 0.4353120 -0.0530000 1.00000 0.00000             
C916  core 0.2754122 0.2254777 0.5582536 -0.0400000 1.00000 0.00000             
C919  core 0.2776112 0.7805784 0.5626139 -0.0530000 1.00000 0.00000             
C916  core 0.7225138 0.2254786 0.4396737 -0.0400000 1.00000 0.00000             
C919  core 0.2776112 0.2232281 0.4353134 -0.0530000 1.00000 0.00000             
C916  core 0.7225138 0.7783276 0.5582521 -0.0400000 1.00000 0.00000             
C916  core 0.0582428 0.2254537 0.2225141 -0.0400000 1.00000 0.00000             
C919  core 0.9353004 0.7805496 0.7776100 -0.0530000 1.00000 0.00000             
C916  core 0.9396845 0.2254517 0.7754137 -0.0400000 1.00000 0.00000             
C919  core 0.0626257 0.7805514 0.2203149 -0.0530000 1.00000 0.00000             
C916  core 0.0582415 0.7783514 0.7754118 -0.0400000 1.00000 0.00000             
C919  core 0.9353017 0.2232558 0.2203162 -0.0530000 1.00000 0.00000             
C916  core 0.9396845 0.7783533 0.2225121 -0.0400000 1.00000 0.00000             
C919  core 0.0626257 0.2232545 0.7776118 -0.0530000 1.00000 0.00000             
C916  core 0.2225141 0.0611824 0.2225141 -0.0400000 1.00000 0.00000             
C919  core 0.7776100 0.9382400 0.7776100 -0.0530000 1.00000 0.00000             
C916  core 0.7754137 0.9426241 0.2225121 -0.0400000 1.00000 0.00000             
C919  core 0.2203149 0.0655653 0.7776118 -0.0530000 1.00000 0.00000             
C916  core 0.7754118 0.0611811 0.7754118 -0.0400000 1.00000 0.00000             
C919  core 0.2203162 0.9382413 0.2203162 -0.0530000 1.00000 0.00000             
C916  core 0.2225121 0.9426241 0.7754137 -0.0400000 1.00000 0.00000             
C919  core 0.7776118 0.0655653 0.2203149 -0.0530000 1.00000 0.00000             
C919  core 0.2202890 0.7232550 0.5626139 -0.0530000 1.00000 0.00000             
C916  core 0.7753885 0.2783523 0.4396737 -0.0400000 1.00000 0.00000             
C919  core 0.2202885 0.2805508 0.4353134 -0.0530000 1.00000 0.00000             
C916  core 0.7753880 0.7254535 0.5582521 -0.0400000 1.00000 0.00000             
C919  core 0.7776388 0.2805508 0.5626139 -0.0530000 1.00000 0.00000             
C916  core 0.2225390 0.7254534 0.4396737 -0.0400000 1.00000 0.00000             
C919  core 0.7776385 0.7232553 0.4353120 -0.0530000 1.00000 0.00000             
C916  core 0.2225381 0.2783519 0.5582536 -0.0400000 1.00000 0.00000             
C919  core 0.5626139 0.7232550 0.2202890 -0.0530000 1.00000 0.00000             
C916  core 0.4396737 0.2783523 0.7753885 -0.0400000 1.00000 0.00000             
C919  core 0.4353120 0.7232553 0.7776385 -0.0530000 1.00000 0.00000             
C916  core 0.5582536 0.2783519 0.2225381 -0.0400000 1.00000 0.00000             
C919  core 0.5626139 0.2805508 0.7776388 -0.0530000 1.00000 0.00000             
C916  core 0.4396737 0.7254534 0.2225390 -0.0400000 1.00000 0.00000             
C919  core 0.4353134 0.2805508 0.2202885 -0.0530000 1.00000 0.00000             
C916  core 0.5582521 0.7254535 0.7753880 -0.0400000 1.00000 0.00000             
C919  core 0.2202890 0.5655535 0.7203154 -0.0530000 1.00000 0.00000             
C916  core 0.7753885 0.4426133 0.2754127 -0.0400000 1.00000 0.00000             
C919  core 0.7776385 0.4382516 0.7203157 -0.0530000 1.00000 0.00000             
C916  core 0.2225381 0.5611932 0.2754122 -0.0400000 1.00000 0.00000             
C919  core 0.7776388 0.5655535 0.2776112 -0.0530000 1.00000 0.00000             
C916  core 0.2225390 0.4426133 0.7225138 -0.0400000 1.00000 0.00000             
C919  core 0.2202885 0.4382530 0.2776112 -0.0530000 1.00000 0.00000             
C916  core 0.7753880 0.5611917 0.7225138 -0.0400000 1.00000 0.00000             
C916  core 0.2225141 0.2254537 0.0582428 -0.0400000 1.00000 0.00000             
C919  core 0.7776100 0.7805496 0.9353004 -0.0530000 1.00000 0.00000             
C916  core 0.2225121 0.7783533 0.9396845 -0.0400000 1.00000 0.00000             
C919  core 0.7776118 0.2232545 0.0626257 -0.0530000 1.00000 0.00000             
C916  core 0.7754118 0.7783514 0.0582415 -0.0400000 1.00000 0.00000             
C919  core 0.2203162 0.2232558 0.9353017 -0.0530000 1.00000 0.00000             
C916  core 0.7754137 0.2254517 0.9396845 -0.0400000 1.00000 0.00000             
C919  core 0.2203149 0.7805514 0.0626257 -0.0530000 1.00000 0.00000             
C919  core 0.5626139 0.2232286 0.7203154 -0.0530000 1.00000 0.00000             
C916  core 0.4396737 0.7783281 0.2754127 -0.0400000 1.00000 0.00000             
C919  core 0.4353134 0.2232281 0.2776112 -0.0530000 1.00000 0.00000             
C916  core 0.5582521 0.7783276 0.7225138 -0.0400000 1.00000 0.00000             
C919  core 0.5626139 0.7805784 0.2776112 -0.0530000 1.00000 0.00000             
C916  core 0.4396737 0.2254786 0.7225138 -0.0400000 1.00000 0.00000             
C919  core 0.4353120 0.7805781 0.7203157 -0.0530000 1.00000 0.00000             
C916  core 0.5582536 0.2254777 0.2754122 -0.0400000 1.00000 0.00000             
C917  core 0.7317860 0.0175866 0.7317860 -0.0170000 1.00000 0.00000             
C917  core 0.2661386 0.9862184 0.7317883 -0.0170000 1.00000 0.00000             
C917  core 0.2661400 0.0175881 0.2661400 -0.0170000 1.00000 0.00000             
C917  core 0.7317883 0.9862184 0.2661386 -0.0170000 1.00000 0.00000             
C917  core 0.7317860 0.7347256 0.0146470 -0.0170000 1.00000 0.00000             
C917  core 0.7317883 0.2690783 0.9832788 -0.0170000 1.00000 0.00000             
C917  core 0.2661400 0.2690796 0.0146485 -0.0170000 1.00000 0.00000             
C917  core 0.2661386 0.7347279 0.9832788 -0.0170000 1.00000 0.00000             
C917  core 0.0146470 0.7347256 0.7317860 -0.0170000 1.00000 0.00000             
C917  core 0.9832788 0.7347279 0.2661386 -0.0170000 1.00000 0.00000             
C917  core 0.0146485 0.2690796 0.2661400 -0.0170000 1.00000 0.00000             
C917  core 0.9832788 0.2690783 0.7317883 -0.0170000 1.00000 0.00000             
C917  core 0.2661463 0.4862254 0.7661404 -0.0170000 1.00000 0.00000             
C917  core 0.7317805 0.5175797 0.7661401 -0.0170000 1.00000 0.00000             
C917  core 0.7317804 0.4862254 0.2317870 -0.0170000 1.00000 0.00000             
C917  core 0.2661459 0.5175811 0.2317863 -0.0170000 1.00000 0.00000             
C917  core 0.2661463 0.7690800 0.4832858 -0.0170000 1.00000 0.00000             
C917  core 0.2661459 0.2347259 0.5146415 -0.0170000 1.00000 0.00000             
C917  core 0.7317804 0.2347266 0.4832858 -0.0170000 1.00000 0.00000             
C917  core 0.7317805 0.7690797 0.5146401 -0.0170000 1.00000 0.00000             
C917  core 0.0146345 0.2347200 0.2317804 -0.0170000 1.00000 0.00000             
C917  core 0.9832928 0.2347183 0.7661476 -0.0170000 1.00000 0.00000             
C917  core 0.0146332 0.7690852 0.7661456 -0.0170000 1.00000 0.00000             
C917  core 0.9832928 0.7690872 0.2317787 -0.0170000 1.00000 0.00000             
C917  core 0.2317804 0.0175741 0.2317804 -0.0170000 1.00000 0.00000             
C917  core 0.7661476 0.9862324 0.2317787 -0.0170000 1.00000 0.00000             
C917  core 0.7661456 0.0175728 0.7661456 -0.0170000 1.00000 0.00000             
C917  core 0.2317787 0.9862324 0.7661476 -0.0170000 1.00000 0.00000             
C917  core 0.7661404 0.2690859 0.4832858 -0.0170000 1.00000 0.00000             
C917  core 0.7661401 0.7347201 0.5146401 -0.0170000 1.00000 0.00000             
C917  core 0.2317870 0.7347200 0.4832858 -0.0170000 1.00000 0.00000             
C917  core 0.2317863 0.2690855 0.5146415 -0.0170000 1.00000 0.00000             
C917  core 0.4832858 0.2690859 0.7661404 -0.0170000 1.00000 0.00000             
C917  core 0.5146415 0.2690855 0.2317863 -0.0170000 1.00000 0.00000             
C917  core 0.4832858 0.7347200 0.2317870 -0.0170000 1.00000 0.00000             
C917  core 0.5146401 0.7347201 0.7661401 -0.0170000 1.00000 0.00000             
C917  core 0.7661404 0.4862254 0.2661463 -0.0170000 1.00000 0.00000             
C917  core 0.2317863 0.5175811 0.2661459 -0.0170000 1.00000 0.00000             
C917  core 0.2317870 0.4862254 0.7317804 -0.0170000 1.00000 0.00000             
C917  core 0.7661401 0.5175797 0.7317805 -0.0170000 1.00000 0.00000             
C917  core 0.2317804 0.2347200 0.0146345 -0.0170000 1.00000 0.00000             
C917  core 0.2317787 0.7690872 0.9832928 -0.0170000 1.00000 0.00000             
C917  core 0.7661456 0.7690852 0.0146332 -0.0170000 1.00000 0.00000             
C917  core 0.7661476 0.2347183 0.9832928 -0.0170000 1.00000 0.00000             
C917  core 0.4832858 0.7690800 0.2661463 -0.0170000 1.00000 0.00000             
C917  core 0.5146401 0.7690797 0.7317805 -0.0170000 1.00000 0.00000             
C917  core 0.4832858 0.2347266 0.7317804 -0.0170000 1.00000 0.00000             
C917  core 0.5146415 0.2347259 0.2661459 -0.0170000 1.00000 0.00000             
C919  core 0.7126377 0.9819933 0.7126377 -0.0530000 1.00000 0.00000             
C919  core 0.2852874 0.0218115 0.7126401 -0.0530000 1.00000 0.00000             
C919  core 0.2852884 0.9819950 0.2852884 -0.0530000 1.00000 0.00000             
C919  core 0.7126401 0.0218115 0.2852874 -0.0530000 1.00000 0.00000             
C919  core 0.7126377 0.7155773 0.9790537 -0.0530000 1.00000 0.00000             
C919  core 0.7126401 0.2882270 0.0188719 -0.0530000 1.00000 0.00000             
C919  core 0.2852884 0.2882280 0.9790554 -0.0530000 1.00000 0.00000             
C919  core 0.2852874 0.7155797 0.0188719 -0.0530000 1.00000 0.00000             
C919  core 0.9790537 0.7155773 0.7126377 -0.0530000 1.00000 0.00000             
C919  core 0.0188719 0.7155797 0.2852874 -0.0530000 1.00000 0.00000             
C919  core 0.9790554 0.2882280 0.2852884 -0.0530000 1.00000 0.00000             
C919  core 0.0188719 0.2882270 0.7126401 -0.0530000 1.00000 0.00000             
C919  core 0.2852794 0.5218267 0.7852886 -0.0530000 1.00000 0.00000             
C919  core 0.7126473 0.4819783 0.7852881 -0.0530000 1.00000 0.00000             
C919  core 0.7126469 0.5218268 0.2126393 -0.0530000 1.00000 0.00000             
C919  core 0.2852794 0.4819798 0.2126385 -0.0530000 1.00000 0.00000             
C919  core 0.2852794 0.7882282 0.5188871 -0.0530000 1.00000 0.00000             
C919  core 0.2852794 0.2155781 0.4790402 -0.0530000 1.00000 0.00000             
C919  core 0.7126469 0.2155789 0.5188871 -0.0530000 1.00000 0.00000             
C919  core 0.7126473 0.7882277 0.4790387 -0.0530000 1.00000 0.00000             
C919  core 0.9790250 0.2155872 0.2126476 -0.0530000 1.00000 0.00000             
C919  core 0.0189024 0.2155855 0.7852803 -0.0530000 1.00000 0.00000             
C919  core 0.9790238 0.7882181 0.7852785 -0.0530000 1.00000 0.00000             
C919  core 0.0189024 0.7882199 0.2126459 -0.0530000 1.00000 0.00000             
C919  core 0.2126476 0.9819646 0.2126476 -0.0530000 1.00000 0.00000             
C919  core 0.7852803 0.0218420 0.2126459 -0.0530000 1.00000 0.00000             
C919  core 0.7852785 0.9819634 0.7852785 -0.0530000 1.00000 0.00000             
C919  core 0.2126459 0.0218420 0.7852803 -0.0530000 1.00000 0.00000             
C919  core 0.7852886 0.2882190 0.5188871 -0.0530000 1.00000 0.00000             
C919  core 0.7852881 0.7155869 0.4790387 -0.0530000 1.00000 0.00000             
C919  core 0.2126393 0.7155865 0.5188871 -0.0530000 1.00000 0.00000             
C919  core 0.2126385 0.2882190 0.4790402 -0.0530000 1.00000 0.00000             
C919  core 0.5188871 0.2882190 0.7852886 -0.0530000 1.00000 0.00000             
C919  core 0.4790402 0.2882190 0.2126385 -0.0530000 1.00000 0.00000             
C919  core 0.5188871 0.7155865 0.2126393 -0.0530000 1.00000 0.00000             
C919  core 0.4790387 0.7155869 0.7852881 -0.0530000 1.00000 0.00000             
C919  core 0.7852886 0.5218267 0.2852794 -0.0530000 1.00000 0.00000             
C919  core 0.2126385 0.4819798 0.2852794 -0.0530000 1.00000 0.00000             
C919  core 0.2126393 0.5218268 0.7126469 -0.0530000 1.00000 0.00000             
C919  core 0.7852881 0.4819783 0.7126473 -0.0530000 1.00000 0.00000             
C919  core 0.2126476 0.2155872 0.9790250 -0.0530000 1.00000 0.00000             
C919  core 0.2126459 0.7882199 0.0189024 -0.0530000 1.00000 0.00000             
C919  core 0.7852785 0.7882181 0.9790238 -0.0530000 1.00000 0.00000             
C919  core 0.7852803 0.2155855 0.0189024 -0.0530000 1.00000 0.00000             
C919  core 0.5188871 0.7882282 0.2852794 -0.0530000 1.00000 0.00000             
C919  core 0.4790387 0.7882277 0.7126473 -0.0530000 1.00000 0.00000             
C919  core 0.5188871 0.2155789 0.7126469 -0.0530000 1.00000 0.00000             
C919  core 0.4790402 0.2155781 0.2852794 -0.0530000 1.00000 0.00000             
H921  core 0.6992706 0.0734945 0.6992706 0.06300000 1.00000 0.00000             
H920  core 0.2969397 0.9155927 0.2969397 0.06300000 1.00000 0.00000             
H921  core 0.2986540 0.9303103 0.6992733 0.06300000 1.00000 0.00000             
H920  core 0.7009890 0.0882137 0.2969391 0.06300000 1.00000 0.00000             
H921  core 0.2986552 0.0734962 0.2986552 0.06300000 1.00000 0.00000             
H920  core 0.7009866 0.9155910 0.7009866 0.06300000 1.00000 0.00000             
H921  core 0.6992733 0.9303103 0.2986540 0.06300000 1.00000 0.00000             
H920  core 0.2969391 0.0882137 0.7009890 0.06300000 1.00000 0.00000             
H921  core 0.6992706 0.7022102 0.0705549 0.06300000 1.00000 0.00000             
H920  core 0.2969397 0.2998793 0.9126531 0.06300000 1.00000 0.00000             
H921  core 0.6992733 0.3015936 0.9273707 0.06300000 1.00000 0.00000             
H920  core 0.2969391 0.7039286 0.0852741 0.06300000 1.00000 0.00000             
H921  core 0.2986552 0.3015949 0.0705566 0.06300000 1.00000 0.00000             
H920  core 0.7009866 0.7039262 0.9126514 0.06300000 1.00000 0.00000             
H921  core 0.2986540 0.7022129 0.9273707 0.06300000 1.00000 0.00000             
H920  core 0.7009890 0.2998787 0.0852741 0.06300000 1.00000 0.00000             
H921  core 0.0705549 0.7022102 0.6992706 0.06300000 1.00000 0.00000             
H920  core 0.9126531 0.2998793 0.2969397 0.06300000 1.00000 0.00000             
H921  core 0.9273707 0.7022129 0.2986540 0.06300000 1.00000 0.00000             
H920  core 0.0852741 0.2998787 0.7009890 0.06300000 1.00000 0.00000             
H921  core 0.0705566 0.3015949 0.2986552 0.06300000 1.00000 0.00000             
H920  core 0.9126514 0.7039262 0.7009866 0.06300000 1.00000 0.00000             
H921  core 0.9273707 0.3015936 0.6992733 0.06300000 1.00000 0.00000             
H920  core 0.0852741 0.7039286 0.2969391 0.06300000 1.00000 0.00000             
H920  core 0.7010239 0.5882339 0.2009890 0.06300000 1.00000 0.00000             
H921  core 0.2986844 0.4303307 0.7986558 0.06300000 1.00000 0.00000             
H920  core 0.2969026 0.4155726 0.2009883 0.06300000 1.00000 0.00000             
H921  core 0.6992418 0.5734743 0.7986551 0.06300000 1.00000 0.00000             
H920  core 0.2969023 0.5882339 0.7969393 0.06300000 1.00000 0.00000             
H921  core 0.6992416 0.4303308 0.1992721 0.06300000 1.00000 0.00000             
H920  core 0.7010245 0.4155712 0.7969388 0.06300000 1.00000 0.00000             
H921  core 0.2986842 0.5734758 0.1992709 0.06300000 1.00000 0.00000             
H920  core 0.7010239 0.2039286 0.5852943 0.06300000 1.00000 0.00000             
H921  core 0.2986844 0.8015955 0.4273911 0.06300000 1.00000 0.00000             
H920  core 0.7010245 0.7998784 0.4126316 0.06300000 1.00000 0.00000             
H921  core 0.2986842 0.2022105 0.5705362 0.06300000 1.00000 0.00000             
H920  core 0.2969023 0.7998789 0.5852943 0.06300000 1.00000 0.00000             
H921  core 0.6992416 0.2022117 0.4273912 0.06300000 1.00000 0.00000             
H920  core 0.2969026 0.2039279 0.4126330 0.06300000 1.00000 0.00000             
H921  core 0.6992418 0.8015947 0.5705347 0.06300000 1.00000 0.00000             
H921  core 0.0705157 0.2021816 0.1992419 0.06300000 1.00000 0.00000             
H920  core 0.9126118 0.7998406 0.7969010 0.06300000 1.00000 0.00000             
H921  core 0.9274116 0.2021793 0.7986856 0.06300000 1.00000 0.00000             
H920  core 0.0853145 0.7998421 0.2010239 0.06300000 1.00000 0.00000             
H921  core 0.0705146 0.8016235 0.7986839 0.06300000 1.00000 0.00000             
H920  core 0.9126129 0.2039649 0.2010253 0.06300000 1.00000 0.00000             
H921  core 0.9274116 0.8016252 0.1992397 0.06300000 1.00000 0.00000             
H920  core 0.0853145 0.2039635 0.7969025 0.06300000 1.00000 0.00000             
H921  core 0.1992419 0.0734553 0.1992419 0.06300000 1.00000 0.00000             
H920  core 0.7969010 0.9155514 0.7969010 0.06300000 1.00000 0.00000             
H921  core 0.7986856 0.9303512 0.1992397 0.06300000 1.00000 0.00000             
H920  core 0.2010239 0.0882541 0.7969025 0.06300000 1.00000 0.00000             
H921  core 0.7986839 0.0734542 0.7986839 0.06300000 1.00000 0.00000             
H920  core 0.2010253 0.9155525 0.2010253 0.06300000 1.00000 0.00000             
H921  core 0.1992397 0.9303512 0.7986856 0.06300000 1.00000 0.00000             
H920  core 0.7969025 0.0882541 0.2010239 0.06300000 1.00000 0.00000             
H920  core 0.2009890 0.7039635 0.5852943 0.06300000 1.00000 0.00000             
H921  core 0.7986558 0.3016240 0.4273911 0.06300000 1.00000 0.00000             
H920  core 0.2009883 0.2998422 0.4126330 0.06300000 1.00000 0.00000             
H921  core 0.7986551 0.7021814 0.5705347 0.06300000 1.00000 0.00000             
H920  core 0.7969393 0.2998419 0.5852943 0.06300000 1.00000 0.00000             
H921  core 0.1992721 0.7021812 0.4273912 0.06300000 1.00000 0.00000             
H920  core 0.7969388 0.7039641 0.4126316 0.06300000 1.00000 0.00000             
H921  core 0.1992709 0.3016238 0.5705362 0.06300000 1.00000 0.00000             
H920  core 0.5852943 0.7039635 0.2009890 0.06300000 1.00000 0.00000             
H921  core 0.4273911 0.3016240 0.7986558 0.06300000 1.00000 0.00000             
H920  core 0.4126316 0.7039641 0.7969388 0.06300000 1.00000 0.00000             
H921  core 0.5705362 0.3016238 0.1992709 0.06300000 1.00000 0.00000             
H920  core 0.5852943 0.2998419 0.7969393 0.06300000 1.00000 0.00000             
H921  core 0.4273912 0.7021812 0.1992721 0.06300000 1.00000 0.00000             
H920  core 0.4126330 0.2998422 0.2009883 0.06300000 1.00000 0.00000             
H921  core 0.5705347 0.7021814 0.7986551 0.06300000 1.00000 0.00000             
H920  core 0.2009890 0.5882339 0.7010239 0.06300000 1.00000 0.00000             
H921  core 0.7986558 0.4303307 0.2986844 0.06300000 1.00000 0.00000             
H920  core 0.7969388 0.4155712 0.7010245 0.06300000 1.00000 0.00000             
H921  core 0.1992709 0.5734758 0.2986842 0.06300000 1.00000 0.00000             
H920  core 0.7969393 0.5882339 0.2969023 0.06300000 1.00000 0.00000             
H921  core 0.1992721 0.4303308 0.6992416 0.06300000 1.00000 0.00000             
H920  core 0.2009883 0.4155726 0.2969026 0.06300000 1.00000 0.00000             
H921  core 0.7986551 0.5734743 0.6992418 0.06300000 1.00000 0.00000             