NOTT300_0GPa                            
   1.00000000000000     
    14.8905297417826130    0.0000000000000000    0.0000000000000000
     0.0000000000000000   14.8905297417826130    0.0000000000000000
     0.0000000000000000    0.0000000000000000   11.9411311513602278
   Al   C    H    O 
     8    64    32    40
Direct
  0.1918049749201653  0.8081950101600434 -0.0000000000000000
  0.3081950102072158  0.6918049898332136  0.4999999999663345
  0.1918049749201653  0.6918049898332136  0.2500000000252456
  0.3081950102072158  0.8081950101600434  0.7499999999915872
  0.6918049898332136  0.3081950102072158  0.4999999999663345
  0.8081950101600434  0.1918049749201653 -0.0000000000000000
  0.6918049898332136  0.1918049749201653  0.7499999999915872
  0.8081950101600434  0.3081950102072158  0.2500000000252456
  0.0932817256140067  0.8585848475479878  0.2022038502519286
  0.4067182892990419  0.6414151524452691  0.7022038353219832
  0.1414151524250545  0.5932817107413877  0.4522038353808943
  0.3585848475951606  0.9067182893192571  0.9522038353472358
  0.4067182892990419  0.8585848475479878  0.5477961646359385
  0.0932817256140067  0.6414151524452691  0.0477961497733169
  0.3585848475951606  0.5932817107413877  0.2977961646106858
  0.1414151524250545  0.9067182893192571  0.7977961646611841
  0.5932817107413877  0.3585848475951606  0.7022038353219832
  0.9067182893192571  0.1414151524250545  0.2022038502519286
  0.6414151524452691  0.0932817256140067  0.9522038353472358
  0.8585848475479878  0.4067182892990419  0.4522038353808943
  0.9067182893192571  0.3585848475951606  0.0477961497733169
  0.5932817107413877  0.1414151524250545  0.5477961646359385
  0.8585848475479878  0.0932817256140067  0.7977961646611841
  0.6414151524452691  0.4067182892990419  0.2977961646106858
  0.0424265553555429  0.9310478324237630  0.2609589173979909
  0.4575734409583178  0.5689521675695011  0.7609589173643323
  0.0689521526564527  0.5424265590821189  0.5109589174232434
  0.4310478324035407  0.9575734409111452  0.0109589173727454
  0.4575734409583178  0.9310478324237630  0.4890410825935892
  0.0424265553555429  0.5689521675695011  0.9890410826440876
  0.4310478324035407  0.5424265590821189  0.2390410826525003
  0.0689521526564527  0.9575734409111452  0.7390410826188420
  0.5424265590821189  0.4310478324035407  0.7609589173643323
  0.9575734409111452  0.0689521526564527  0.2609589173979909
  0.5689521675695011  0.0424265553555429  0.0109589173727454
  0.9310478324237630  0.4575734409583178  0.5109589174232434
  0.9575734409111452  0.4310478324035407  0.9890410826440876
  0.5424265590821189  0.0689521526564527  0.4890410825935892
  0.9310478324237630  0.0424265553555429  0.7390410826188420
  0.5689521675695011  0.4575734409583178  0.2390410826525003
 -0.0000000000000000 -0.0000000000000000  0.2017646294428186
  0.5000000000202149  0.5000000000202149  0.7017646145128734
 -0.0000000000000000  0.5000000000202149  0.4517646145717844
  0.5000000000202149 -0.0000000000000000  0.9517646145381261
  0.5000000000202149 -0.0000000000000000  0.5482353854450411
 -0.0000000000000000  0.5000000000202149  0.0482353705824270
  0.5000000000202149  0.5000000000202149  0.2982353854197957
 -0.0000000000000000 -0.0000000000000000  0.7982353854702938
  0.0398458911057024  0.9300005786198897  0.3778939639491896
  0.4601541051407632  0.5699994213733672  0.8778939639155237
  0.0699994288332630  0.5398458650466187  0.6278939639744348
  0.4300005785996747  0.9601541349466454  0.1278939639239365
  0.4601541051407632  0.9300005786198897  0.3721060360423976
  0.0398458911057024  0.5699994213733672  0.8721060360928963
  0.4300005785996747  0.5398458650466187  0.1221060361013091
  0.0699994288332630  0.9601541349466454  0.6221060360676436
  0.5398458650466187  0.4300005785996747  0.8778939639155237
  0.9601541349466454  0.0699994288332630  0.3778939639491896
  0.5699994213733672  0.0398458911057024  0.1278939639239365
  0.9300005786198897  0.4601541051407632  0.6278939639744348
  0.9601541349466454  0.4300005785996747  0.8721060360928963
  0.5398458650466187  0.0699994288332630  0.3721060360423976
  0.9300005786198897  0.0398458911057024  0.6221060360676436
  0.5699994213733672  0.4601541051407632  0.1221060361013091
 -0.0000000000000000 -0.0000000000000000  0.4382375391139165
  0.5000000000202149  0.5000000000202149  0.9382375689569745
 -0.0000000000000000  0.5000000000202149  0.6882375689317218
  0.5000000000202149 -0.0000000000000000  0.1882375391728277
  0.5000000000202149 -0.0000000000000000  0.3117624608776707
 -0.0000000000000000  0.5000000000202149  0.8117624310514454
  0.5000000000202149  0.5000000000202149  0.0617624608524178
 -0.0000000000000000 -0.0000000000000000  0.5617624310261927
  0.3124290830285962  0.7499999999966320  0.1249999999705409
  0.1875709169916258  0.7499999999966320  0.6250000000210392
  0.2499999999764171  0.8124290830488108  0.3749999999957936
  0.2499999999764171  0.6875709169444533  0.8749999999621281
  0.8124290830488108  0.2499999999764171  0.6250000000210392
  0.6875709169444533  0.2499999999764171  0.1249999999705409
  0.7499999999966320  0.3124290830285962  0.8749999999621281
  0.7499999999966320  0.1875709169916258  0.3749999999957936
 -0.0000000000000000 -0.0000000000000000  0.1102185526637580
  0.5000000000202149  0.5000000000202149  0.6102185750165939
 -0.0000000000000000  0.5000000000202149  0.3602185451987817
  0.5000000000202149 -0.0000000000000000  0.8602185749576828
  0.5000000000202149 -0.0000000000000000  0.6397814250254844
 -0.0000000000000000  0.5000000000202149  0.1397814548517093
  0.5000000000202149  0.5000000000202149  0.3897814547927984
 -0.0000000000000000 -0.0000000000000000  0.8897814250507371
  0.0695384242690305  0.8723779091288109  0.4211490158611013
  0.4304615757511845  0.6276220908644461  0.9211490158274430
  0.1276221058044528  0.5695383944361971  0.6711490158021903
  0.3723779091085956  0.9304616055570669  0.1711490158358557
  0.4304615757511845  0.8723779091288109  0.3288509842146425
  0.0695384242690305  0.6276220908644461  0.8288509841809769
  0.3723779091085956  0.5695383944361971  0.0788509841893899
  0.1276221058044528  0.9304616055570669  0.5788509841557313
  0.5695383944361971  0.3723779091085956  0.9211490158274430
  0.9304616055570669  0.1276221058044528  0.4211490158611013
  0.6276220908644461  0.0695384242690305  0.1711490158358557
  0.8723779091288109  0.4304615757511845  0.6711490158021903
  0.9304616055570669  0.3723779091085956  0.8288509841809769
  0.5695383944361971  0.1276221058044528  0.3288509842146425
  0.8723779091288109  0.0695384242690305  0.5788509841557313
  0.6276220908644461  0.4304615757511845  0.0788509841893899
  0.2472374443640281  0.7499999999966320  0.1249999999705409
  0.2527625406959654  0.7499999999966320  0.6250000000210392
  0.2499999999764171  0.7472374592770763  0.3749999999957936
  0.2499999999764171  0.7527625407161878  0.8749999999621281
  0.7472374592770763  0.2499999999764171  0.6250000000210392
  0.7527625407161878  0.2499999999764171  0.1249999999705409
  0.7499999999966320  0.2472374443640281  0.8749999999621281
  0.7499999999966320  0.2527625406959654  0.3749999999957936
  0.1210107941214797  0.8753154265822338  0.1041566027550495
  0.3789892058987354  0.6246845734110302  0.6041566102116055
  0.1246845957637523  0.6210107940743065  0.3541566102705168
  0.3753153967763517  0.8789892059189576  0.8541566102368511
  0.3789892058987354  0.8753154265822338  0.6458433897463162
  0.1210107941214797  0.6246845734110302  0.1458433897799814
  0.3753153967763517  0.6210107940743065  0.3958433897210704
  0.1246845957637523  0.8789892059189576  0.8958433897715617
  0.6210107940743065  0.3753153967763517  0.6041566102116055
  0.8789892059189576  0.1246845957637523  0.1041566027550495
  0.6246845734110302  0.1210107941214797  0.8541566102368511
  0.8753154265822338  0.3789892058987354  0.3541566102705168
  0.8789892059189576  0.3753153967763517  0.1458433897799814
  0.6210107940743065  0.1246845957637523  0.6458433897463162
  0.8753154265822338  0.1210107941214797  0.8958433897715617
  0.6246845734110302  0.3789892058987354  0.3958433897210704
  0.1067784652185149  0.7863528453131716  0.2570858699307750
  0.3932215422144227  0.7136471546800924  0.7570858699812734
  0.2136471695527045  0.6067784876116744  0.5070858699560207
  0.2863528453603438  0.8932215123815825  0.0070858699896861
  0.3932215422144227  0.7863528453131716  0.4929141300608051
  0.1067784652185149  0.7136471546800924  0.9929141300271466
  0.2863528453603438  0.6067784876116744  0.2429141300355596
  0.2136471695527045  0.8932215123815825  0.7429141300018939
  0.6067784876116744  0.2863528453603438  0.7570858699812734
  0.8932215123815825  0.2136471695527045  0.2570858699307750
  0.7136471546800924  0.1067784652185149  0.0070858699896861
  0.7863528453131716  0.3932215422144227  0.5070858699560207
  0.8932215123815825  0.2863528453603438  0.9929141300271466
  0.6067784876116744  0.2136471695527045  0.4929141300608051
  0.7863528453131716  0.1067784652185149  0.7429141300018939
  0.7136471546800924  0.3932215422144227  0.2429141300355595
 
  0.00000000E+00  0.00000000E+00  0.00000000E+00
  0.00000000E+00  0.00000000E+00  0.00000000E+00
  0.00000000E+00  0.00000000E+00  0.00000000E+00
  0.00000000E+00  0.00000000E+00  0.00000000E+00
  0.00000000E+00  0.00000000E+00  0.00000000E+00
  0.00000000E+00  0.00000000E+00  0.00000000E+00
  0.00000000E+00  0.00000000E+00  0.00000000E+00
  0.00000000E+00  0.00000000E+00  0.00000000E+00
  0.00000000E+00  0.00000000E+00  0.00000000E+00
  0.00000000E+00  0.00000000E+00  0.00000000E+00
  0.00000000E+00  0.00000000E+00  0.00000000E+00
  0.00000000E+00  0.00000000E+00  0.00000000E+00
  0.00000000E+00  0.00000000E+00  0.00000000E+00
  0.00000000E+00  0.00000000E+00  0.00000000E+00
  0.00000000E+00  0.00000000E+00  0.00000000E+00
  0.00000000E+00  0.00000000E+00  0.00000000E+00
  0.00000000E+00  0.00000000E+00  0.00000000E+00
  0.00000000E+00  0.00000000E+00  0.00000000E+00
  0.00000000E+00  0.00000000E+00  0.00000000E+00
  0.00000000E+00  0.00000000E+00  0.00000000E+00
  0.00000000E+00  0.00000000E+00  0.00000000E+00
  0.00000000E+00  0.00000000E+00  0.00000000E+00
  0.00000000E+00  0.00000000E+00  0.00000000E+00
  0.00000000E+00  0.00000000E+00  0.00000000E+00
  0.00000000E+00  0.00000000E+00  0.00000000E+00
  0.00000000E+00  0.00000000E+00  0.00000000E+00
  0.00000000E+00  0.00000000E+00  0.00000000E+00
  0.00000000E+00  0.00000000E+00  0.00000000E+00
  0.00000000E+00  0.00000000E+00  0.00000000E+00
  0.00000000E+00  0.00000000E+00  0.00000000E+00
  0.00000000E+00  0.00000000E+00  0.00000000E+00
  0.00000000E+00  0.00000000E+00  0.00000000E+00
  0.00000000E+00  0.00000000E+00  0.00000000E+00
  0.00000000E+00  0.00000000E+00  0.00000000E+00
  0.00000000E+00  0.00000000E+00  0.00000000E+00
  0.00000000E+00  0.00000000E+00  0.00000000E+00
  0.00000000E+00  0.00000000E+00  0.00000000E+00
  0.00000000E+00  0.00000000E+00  0.00000000E+00
  0.00000000E+00  0.00000000E+00  0.00000000E+00
  0.00000000E+00  0.00000000E+00  0.00000000E+00
  0.00000000E+00  0.00000000E+00  0.00000000E+00
  0.00000000E+00  0.00000000E+00  0.00000000E+00
  0.00000000E+00  0.00000000E+00  0.00000000E+00
  0.00000000E+00  0.00000000E+00  0.00000000E+00
  0.00000000E+00  0.00000000E+00  0.00000000E+00
  0.00000000E+00  0.00000000E+00  0.00000000E+00
  0.00000000E+00  0.00000000E+00  0.00000000E+00
  0.00000000E+00  0.00000000E+00  0.00000000E+00
  0.00000000E+00  0.00000000E+00  0.00000000E+00
  0.00000000E+00  0.00000000E+00  0.00000000E+00
  0.00000000E+00  0.00000000E+00  0.00000000E+00
  0.00000000E+00  0.00000000E+00  0.00000000E+00
  0.00000000E+00  0.00000000E+00  0.00000000E+00
  0.00000000E+00  0.00000000E+00  0.00000000E+00
  0.00000000E+00  0.00000000E+00  0.00000000E+00
  0.00000000E+00  0.00000000E+00  0.00000000E+00
  0.00000000E+00  0.00000000E+00  0.00000000E+00
  0.00000000E+00  0.00000000E+00  0.00000000E+00
  0.00000000E+00  0.00000000E+00  0.00000000E+00
  0.00000000E+00  0.00000000E+00  0.00000000E+00
  0.00000000E+00  0.00000000E+00  0.00000000E+00
  0.00000000E+00  0.00000000E+00  0.00000000E+00
  0.00000000E+00  0.00000000E+00  0.00000000E+00
  0.00000000E+00  0.00000000E+00  0.00000000E+00
  0.00000000E+00  0.00000000E+00  0.00000000E+00
  0.00000000E+00  0.00000000E+00  0.00000000E+00
  0.00000000E+00  0.00000000E+00  0.00000000E+00
  0.00000000E+00  0.00000000E+00  0.00000000E+00
  0.00000000E+00  0.00000000E+00  0.00000000E+00
  0.00000000E+00  0.00000000E+00  0.00000000E+00
  0.00000000E+00  0.00000000E+00  0.00000000E+00
  0.00000000E+00  0.00000000E+00  0.00000000E+00
  0.00000000E+00  0.00000000E+00  0.00000000E+00
  0.00000000E+00  0.00000000E+00  0.00000000E+00
  0.00000000E+00  0.00000000E+00  0.00000000E+00
  0.00000000E+00  0.00000000E+00  0.00000000E+00
  0.00000000E+00  0.00000000E+00  0.00000000E+00
  0.00000000E+00  0.00000000E+00  0.00000000E+00
  0.00000000E+00  0.00000000E+00  0.00000000E+00
  0.00000000E+00  0.00000000E+00  0.00000000E+00
  0.00000000E+00  0.00000000E+00  0.00000000E+00
  0.00000000E+00  0.00000000E+00  0.00000000E+00
  0.00000000E+00  0.00000000E+00  0.00000000E+00
  0.00000000E+00  0.00000000E+00  0.00000000E+00
  0.00000000E+00  0.00000000E+00  0.00000000E+00
  0.00000000E+00  0.00000000E+00  0.00000000E+00
  0.00000000E+00  0.00000000E+00  0.00000000E+00
  0.00000000E+00  0.00000000E+00  0.00000000E+00
  0.00000000E+00  0.00000000E+00  0.00000000E+00
  0.00000000E+00  0.00000000E+00  0.00000000E+00
  0.00000000E+00  0.00000000E+00  0.00000000E+00
  0.00000000E+00  0.00000000E+00  0.00000000E+00
  0.00000000E+00  0.00000000E+00  0.00000000E+00
  0.00000000E+00  0.00000000E+00  0.00000000E+00
  0.00000000E+00  0.00000000E+00  0.00000000E+00
  0.00000000E+00  0.00000000E+00  0.00000000E+00
  0.00000000E+00  0.00000000E+00  0.00000000E+00
  0.00000000E+00  0.00000000E+00  0.00000000E+00
  0.00000000E+00  0.00000000E+00  0.00000000E+00
  0.00000000E+00  0.00000000E+00  0.00000000E+00
  0.00000000E+00  0.00000000E+00  0.00000000E+00
  0.00000000E+00  0.00000000E+00  0.00000000E+00
  0.00000000E+00  0.00000000E+00  0.00000000E+00
  0.00000000E+00  0.00000000E+00  0.00000000E+00
  0.00000000E+00  0.00000000E+00  0.00000000E+00
  0.00000000E+00  0.00000000E+00  0.00000000E+00
  0.00000000E+00  0.00000000E+00  0.00000000E+00
  0.00000000E+00  0.00000000E+00  0.00000000E+00
  0.00000000E+00  0.00000000E+00  0.00000000E+00
  0.00000000E+00  0.00000000E+00  0.00000000E+00
  0.00000000E+00  0.00000000E+00  0.00000000E+00
  0.00000000E+00  0.00000000E+00  0.00000000E+00
  0.00000000E+00  0.00000000E+00  0.00000000E+00
  0.00000000E+00  0.00000000E+00  0.00000000E+00
  0.00000000E+00  0.00000000E+00  0.00000000E+00
  0.00000000E+00  0.00000000E+00  0.00000000E+00
  0.00000000E+00  0.00000000E+00  0.00000000E+00
  0.00000000E+00  0.00000000E+00  0.00000000E+00
  0.00000000E+00  0.00000000E+00  0.00000000E+00
  0.00000000E+00  0.00000000E+00  0.00000000E+00
  0.00000000E+00  0.00000000E+00  0.00000000E+00
  0.00000000E+00  0.00000000E+00  0.00000000E+00
  0.00000000E+00  0.00000000E+00  0.00000000E+00
  0.00000000E+00  0.00000000E+00  0.00000000E+00
  0.00000000E+00  0.00000000E+00  0.00000000E+00
  0.00000000E+00  0.00000000E+00  0.00000000E+00
  0.00000000E+00  0.00000000E+00  0.00000000E+00
  0.00000000E+00  0.00000000E+00  0.00000000E+00
  0.00000000E+00  0.00000000E+00  0.00000000E+00
  0.00000000E+00  0.00000000E+00  0.00000000E+00
  0.00000000E+00  0.00000000E+00  0.00000000E+00
  0.00000000E+00  0.00000000E+00  0.00000000E+00
  0.00000000E+00  0.00000000E+00  0.00000000E+00
  0.00000000E+00  0.00000000E+00  0.00000000E+00
  0.00000000E+00  0.00000000E+00  0.00000000E+00
  0.00000000E+00  0.00000000E+00  0.00000000E+00
  0.00000000E+00  0.00000000E+00  0.00000000E+00
  0.00000000E+00  0.00000000E+00  0.00000000E+00
  0.00000000E+00  0.00000000E+00  0.00000000E+00
  0.00000000E+00  0.00000000E+00  0.00000000E+00
  0.00000000E+00  0.00000000E+00  0.00000000E+00
  0.00000000E+00  0.00000000E+00  0.00000000E+00
  0.00000000E+00  0.00000000E+00  0.00000000E+00
  0.00000000E+00  0.00000000E+00  0.00000000E+00
