# 
# Keywords:
# 
opti conv molmec comp phon noden prop  
# 
# Options:
# 
cell
  24.336762  24.336717  24.336749  60.000080  60.000140  60.000118
fractional  1   
C913  core 0.1433170 0.1496635 0.3583490 1.07050000 1.00000 0.00000             
C913  core 0.3528301 0.3591803 0.1488342 1.07050000 1.00000 0.00000             
C913  core 0.3528310 0.1496638 0.1488339 1.07050000 1.00000 0.00000             
C913  core 0.1433157 0.3591791 0.3583486 1.07050000 1.00000 0.00000             
C913  core 0.1433168 0.3591779 0.1488329 1.07050000 1.00000 0.00000             
C913  core 0.3528321 0.1496646 0.3583476 1.07050000 1.00000 0.00000             
C913  core 0.8528319 0.8591786 0.6488335 1.07050000 1.00000 0.00000             
C913  core 0.6433158 0.6496648 0.8583476 1.07050000 1.00000 0.00000             
C913  core 0.6433167 0.8591798 0.6488328 1.07050000 1.00000 0.00000             
C913  core 0.8528305 0.6496637 0.8583490 1.07050000 1.00000 0.00000             
C913  core 0.8528310 0.6496639 0.6488336 1.07050000 1.00000 0.00000             
C913  core 0.6433163 0.8591798 0.8583480 1.07050000 1.00000 0.00000             
C902  core 0.0995405 0.1058869 0.4021256 0.00500000 1.00000 0.00000             
C902  core 0.3966064 0.4029572 0.1050576 0.00500000 1.00000 0.00000             
C902  core 0.3966074 0.1058873 0.1050572 0.00500000 1.00000 0.00000             
C902  core 0.0995391 0.4029556 0.4021253 0.00500000 1.00000 0.00000             
C902  core 0.0995402 0.4029541 0.1050563 0.00500000 1.00000 0.00000             
C902  core 0.3966089 0.1058881 0.4021240 0.00500000 1.00000 0.00000             
C902  core 0.8966085 0.9029551 0.6050570 0.00500000 1.00000 0.00000             
C902  core 0.5995388 0.6058886 0.9021244 0.00500000 1.00000 0.00000             
C902  core 0.5995404 0.9029564 0.6050560 0.00500000 1.00000 0.00000             
C902  core 0.8966073 0.6058866 0.9021254 0.00500000 1.00000 0.00000             
C902  core 0.8966075 0.6058872 0.6050571 0.00500000 1.00000 0.00000             
C902  core 0.5995394 0.9029563 0.9021246 0.00500000 1.00000 0.00000             
C903  core 0.0197267 0.0260730 0.4819393 -0.0845000 1.00000 0.00000             
C903  core 0.4764201 0.4827712 0.0252433 -0.0845000 1.00000 0.00000             
C903  core 0.4764210 0.0260739 0.0252431 -0.0845000 1.00000 0.00000             
C903  core 0.0197252 0.4827692 0.4819392 -0.0845000 1.00000 0.00000             
C903  core 0.0197262 0.4827676 0.0252427 -0.0845000 1.00000 0.00000             
C903  core 0.4764228 0.0260744 0.4819376 -0.0845000 1.00000 0.00000             
C903  core 0.9764224 0.9827688 0.5252434 -0.0845000 1.00000 0.00000             
C903  core 0.5197245 0.5260753 0.9819388 -0.0845000 1.00000 0.00000             
C903  core 0.5197269 0.9827702 0.5252419 -0.0845000 1.00000 0.00000             
C903  core 0.9764217 0.5260720 0.9819387 -0.0845000 1.00000 0.00000             
C903  core 0.9764210 0.5260734 0.5252434 -0.0845000 1.00000 0.00000             
C903  core 0.5197253 0.9827699 0.9819386 -0.0845000 1.00000 0.00000             
C912  core 0.0305912 0.1350410 0.4220238 -0.0702500 1.00000 0.00000             
C912  core 0.1286944 0.0369374 0.4220226 -0.0702500 1.00000 0.00000             
C912  core 0.4165055 0.4228530 0.0361082 -0.0702500 1.00000 0.00000             
C912  core 0.4165025 0.4228569 0.1342114 -0.0702500 1.00000 0.00000             
C912  core 0.4165055 0.0369378 0.1342111 -0.0702500 1.00000 0.00000             
C912  core 0.4165044 0.1350417 0.0361078 -0.0702500 1.00000 0.00000             
C912  core 0.0305898 0.4228553 0.4220206 -0.0702500 1.00000 0.00000             
C912  core 0.1286931 0.4228511 0.4220254 -0.0702500 1.00000 0.00000             
C912  core 0.1286940 0.4228531 0.0361069 -0.0702500 1.00000 0.00000             
C912  core 0.0305909 0.4228502 0.1342104 -0.0702500 1.00000 0.00000             
C912  core 0.4165063 0.0369387 0.4220218 -0.0702500 1.00000 0.00000             
C912  core 0.4165069 0.1350423 0.4220214 -0.0702500 1.00000 0.00000             
C912  core 0.9655578 0.8738009 0.5851588 -0.0702500 1.00000 0.00000             
C912  core 0.8674547 0.9719046 0.5851601 -0.0702500 1.00000 0.00000             
C912  core 0.5796418 0.5859898 0.8729707 -0.0702500 1.00000 0.00000             
C912  core 0.5796401 0.5859925 0.9710737 -0.0702500 1.00000 0.00000             
C912  core 0.5796436 0.9719059 0.5851576 -0.0702500 1.00000 0.00000             
C912  core 0.5796421 0.8738023 0.5851589 -0.0702500 1.00000 0.00000             
C912  core 0.9655566 0.5859899 0.8729711 -0.0702500 1.00000 0.00000             
C912  core 0.8674537 0.5859875 0.9710748 -0.0702500 1.00000 0.00000             
C912  core 0.8674534 0.5859914 0.5851575 -0.0702500 1.00000 0.00000             
C912  core 0.9655568 0.5859878 0.5851615 -0.0702500 1.00000 0.00000             
C912  core 0.5796411 0.9719058 0.8729707 -0.0702500 1.00000 0.00000             
C912  core 0.5796422 0.8738021 0.9710740 -0.0702500 1.00000 0.00000             
C912  core 0.9906989 0.0950036 0.4619886 -0.0702500 1.00000 0.00000             
C912  core 0.0886570 0.9970451 0.4619874 -0.0702500 1.00000 0.00000             
C912  core 0.4564702 0.4628180 0.9962158 -0.0702500 1.00000 0.00000             
C912  core 0.4564673 0.4628218 0.0941738 -0.0702500 1.00000 0.00000             
C912  core 0.4564702 0.9970458 0.0941735 -0.0702500 1.00000 0.00000             
C912  core 0.4564691 0.0950045 0.9962154 -0.0702500 1.00000 0.00000             
C912  core 0.9906975 0.4628201 0.4619854 -0.0702500 1.00000 0.00000             
C912  core 0.0886556 0.4628158 0.4619903 -0.0702500 1.00000 0.00000             
C912  core 0.0886565 0.4628178 0.9962148 -0.0702500 1.00000 0.00000             
C912  core 0.9906985 0.4628148 0.0941731 -0.0702500 1.00000 0.00000             
C912  core 0.4564712 0.9970465 0.4619866 -0.0702500 1.00000 0.00000             
C912  core 0.4564718 0.0950049 0.4619861 -0.0702500 1.00000 0.00000             
C912  core 0.0054501 0.9138383 0.5451940 -0.0702500 1.00000 0.00000             
C912  core 0.9074921 0.0117968 0.5451953 -0.0702500 1.00000 0.00000             
C912  core 0.5396768 0.5460251 0.9130084 -0.0702500 1.00000 0.00000             
C912  core 0.5396750 0.5460280 0.0109663 -0.0702500 1.00000 0.00000             
C912  core 0.5396789 0.0117981 0.5451927 -0.0702500 1.00000 0.00000             
C912  core 0.5396775 0.9138397 0.5451939 -0.0702500 1.00000 0.00000             
C912  core 0.0054491 0.5460247 0.9130082 -0.0702500 1.00000 0.00000             
C912  core 0.9074914 0.5460222 0.0109668 -0.0702500 1.00000 0.00000             
C912  core 0.9074907 0.5460266 0.5451927 -0.0702500 1.00000 0.00000             
C912  core 0.0054489 0.5460228 0.5451968 -0.0702500 1.00000 0.00000             
C912  core 0.5396761 0.0117980 0.9130082 -0.0702500 1.00000 0.00000             
C912  core 0.5396772 0.9138393 0.0109663 -0.0702500 1.00000 0.00000             
H915  core 0.0086488 0.1893476 0.4058423 0.11250000 1.00000 0.00000             
H915  core 0.1830009 0.0149948 0.4058401 0.11250000 1.00000 0.00000             
H915  core 0.4003247 0.4066694 0.0141660 0.11250000 1.00000 0.00000             
H915  core 0.4003194 0.4066763 0.1885179 0.11250000 1.00000 0.00000             
H915  core 0.4003240 0.0149951 0.1885176 0.11250000 1.00000 0.00000             
H915  core 0.4003220 0.1893483 0.0141655 0.11250000 1.00000 0.00000             
H915  core 0.0086475 0.4066750 0.4058365 0.11250000 1.00000 0.00000             
H915  core 0.1829995 0.4066674 0.4058453 0.11250000 1.00000 0.00000             
H915  core 0.1830005 0.4066724 0.0141643 0.11250000 1.00000 0.00000             
H915  core 0.0086485 0.4066670 0.1885169 0.11250000 1.00000 0.00000             
H915  core 0.4003240 0.0149961 0.4058400 0.11250000 1.00000 0.00000             
H915  core 0.4003250 0.1893489 0.4058392 0.11250000 1.00000 0.00000             
H915  core 0.9875002 0.8194943 0.6013402 0.11250000 1.00000 0.00000             
H915  core 0.8131482 0.9938471 0.6013426 0.11250000 1.00000 0.00000             
H915  core 0.5958247 0.6021705 0.8186642 0.11250000 1.00000 0.00000             
H915  core 0.5958216 0.6021755 0.9930160 0.11250000 1.00000 0.00000             
H915  core 0.5958261 0.9938484 0.6013393 0.11250000 1.00000 0.00000             
H915  core 0.5958234 0.8194957 0.6013415 0.11250000 1.00000 0.00000             
H915  core 0.9874987 0.6021731 0.8186646 0.11250000 1.00000 0.00000             
H915  core 0.8131473 0.6021687 0.9930175 0.11250000 1.00000 0.00000             
H915  core 0.8131469 0.6021749 0.6013379 0.11250000 1.00000 0.00000             
H915  core 0.9874992 0.6021683 0.6013451 0.11250000 1.00000 0.00000             
H915  core 0.5958227 0.9938485 0.8186641 0.11250000 1.00000 0.00000             
H915  core 0.5958248 0.8194954 0.9930163 0.11250000 1.00000 0.00000             
H915  core 0.9365942 0.1176205 0.4777331 0.11250000 1.00000 0.00000             
H915  core 0.1112738 0.9429403 0.4777308 0.11250000 1.00000 0.00000             
H915  core 0.4722154 0.4785604 0.9421110 0.11250000 1.00000 0.00000             
H915  core 0.4722101 0.4785673 0.1167904 0.11250000 1.00000 0.00000             
H915  core 0.4722147 0.9429409 0.1167902 0.11250000 1.00000 0.00000             
H915  core 0.4722126 0.1176215 0.9421106 0.11250000 1.00000 0.00000             
H915  core 0.9365928 0.4785658 0.4777274 0.11250000 1.00000 0.00000             
H915  core 0.1112723 0.4785581 0.4777363 0.11250000 1.00000 0.00000             
H915  core 0.1112732 0.4785629 0.9421100 0.11250000 1.00000 0.00000             
H915  core 0.9365938 0.4785576 0.1167900 0.11250000 1.00000 0.00000             
H915  core 0.4722149 0.9429416 0.4777307 0.11250000 1.00000 0.00000             
H915  core 0.4722159 0.1176218 0.4777299 0.11250000 1.00000 0.00000             
H915  core 0.0595548 0.8912213 0.5294496 0.11250000 1.00000 0.00000             
H915  core 0.8848754 0.0659016 0.5294519 0.11250000 1.00000 0.00000             
H915  core 0.5239334 0.5302802 0.8903918 0.11250000 1.00000 0.00000             
H915  core 0.5239302 0.5302852 0.0650710 0.11250000 1.00000 0.00000             
H915  core 0.5239355 0.0659029 0.5294482 0.11250000 1.00000 0.00000             
H915  core 0.5239330 0.8912228 0.5294504 0.11250000 1.00000 0.00000             
H915  core 0.0595537 0.5302816 0.8903912 0.11250000 1.00000 0.00000             
H915  core 0.8848748 0.5302771 0.0650715 0.11250000 1.00000 0.00000             
H915  core 0.8848739 0.5302841 0.5294471 0.11250000 1.00000 0.00000             
H915  core 0.0595536 0.5302774 0.5294544 0.11250000 1.00000 0.00000             
H915  core 0.5239316 0.0659028 0.8903915 0.11250000 1.00000 0.00000             
H915  core 0.5239336 0.8912223 0.0650711 0.11250000 1.00000 0.00000             
O170  core 0.1160005 0.2127417 0.3404688 -1.0800000 1.00000 0.00000             
O170  core 0.2063951 0.1223470 0.3404676 -1.0800000 1.00000 0.00000             
O170  core 0.3349509 0.3412978 0.1215177 -1.0800000 1.00000 0.00000             
O170  core 0.3349479 0.3413010 0.2119123 -1.0800000 1.00000 0.00000             
O170  core 0.3349507 0.1223471 0.2119119 -1.0800000 1.00000 0.00000             
O170  core 0.3349499 0.2127420 0.1215174 -1.0800000 1.00000 0.00000             
O170  core 0.1159994 0.3413002 0.3404655 -1.0800000 1.00000 0.00000             
O170  core 0.2063938 0.3412965 0.3404700 -1.0800000 1.00000 0.00000             
O170  core 0.2063948 0.3412986 0.1215166 -1.0800000 1.00000 0.00000             
O170  core 0.1160002 0.3412961 0.2119110 -1.0800000 1.00000 0.00000             
O170  core 0.3349510 0.1223479 0.3404672 -1.0800000 1.00000 0.00000             
O170  core 0.3349515 0.2127427 0.3404667 -1.0800000 1.00000 0.00000             
O170  core 0.8801482 0.7961004 0.6667137 -1.0800000 1.00000 0.00000             
O170  core 0.7897538 0.8864953 0.6667149 -1.0800000 1.00000 0.00000             
O170  core 0.6611977 0.6675444 0.7952695 -1.0800000 1.00000 0.00000             
O170  core 0.6611959 0.6675465 0.8856641 -1.0800000 1.00000 0.00000             
O170  core 0.6611982 0.8864963 0.6667131 -1.0800000 1.00000 0.00000             
O170  core 0.6611967 0.7961016 0.6667143 -1.0800000 1.00000 0.00000             
O170  core 0.8801470 0.6675456 0.7952709 -1.0800000 1.00000 0.00000             
O170  core 0.7897525 0.6675437 0.8856655 -1.0800000 1.00000 0.00000             
O170  core 0.7897530 0.6675464 0.6667126 -1.0800000 1.00000 0.00000             
O170  core 0.8801476 0.6675431 0.6667161 -1.0800000 1.00000 0.00000             
O170  core 0.6611968 0.8864963 0.7952699 -1.0800000 1.00000 0.00000             
O170  core 0.6611977 0.7961015 0.8856645 -1.0800000 1.00000 0.00000             
O171  core 0.2480737 0.2544217 0.2535910 -2.0000000 1.00000 0.00000             
O171  core 0.7480737 0.7544218 0.7535908 -2.0000000 1.00000 0.00000             
Zn172 core 0.1462163 0.2883741 0.2875430 2.00000000 1.00000 0.00000             
Zn172 core 0.2820265 0.1525639 0.2875435 2.00000000 1.00000 0.00000             
Zn172 core 0.2820264 0.2883741 0.1517335 2.00000000 1.00000 0.00000             
Zn172 core 0.2820258 0.2883745 0.2875440 2.00000000 1.00000 0.00000             
Zn172 core 0.8499312 0.7204688 0.7196388 2.00000000 1.00000 0.00000             
Zn172 core 0.7141216 0.8562796 0.7196382 2.00000000 1.00000 0.00000             
Zn172 core 0.7141212 0.7204694 0.7196379 2.00000000 1.00000 0.00000             
Zn172 core 0.7141210 0.7204694 0.8554484 2.00000000 1.00000 0.00000             
space
  1

output frc forceconstants.frc
output shengBTE
