NOTT300_0GPa                            
   1.00000000000000     
    14.7145297417826146    0.0000000000000000    0.0000000000000000
     0.0000000000000000   14.7145297417826146    0.0000000000000000
     0.0000000000000000    0.0000000000000000   11.7651311513602295
   Al   C    H    O 
     8    64    32    40
Direct
  0.1923817661915515  0.8076182188886569 -0.0000000000000000
  0.3076182189358299  0.6923817811046000  0.4999999999663345
  0.1923817661915515  0.6923817811046000  0.2500000000252456
  0.3076182189358299  0.8076182188886569  0.7499999999915872
  0.6923817811046000  0.3076182189358299  0.4999999999663345
  0.8076182188886569  0.1923817661915515 -0.0000000000000000
  0.6923817811046000  0.1923817661915515  0.7499999999915872
  0.8076182188886569  0.3076182189358299  0.2500000000252456
  0.0929009898795645  0.8581656661311917  0.2006264464871418
  0.4070990250334840  0.6418343338620652  0.7006264315571965
  0.1418343338418503  0.5929009750069461  0.4506264316161076
  0.3581656661783647  0.9070990250536988  0.9506264315824492
  0.4070990250334840  0.8581656661311917  0.5493735684007252
  0.0929009898795645  0.6418343338620652  0.0493735535381038
  0.3581656661783647  0.5929009750069461  0.2993735683754725
  0.1418343338418503  0.9070990250536988  0.7993735684259707
  0.5929009750069461  0.3581656661783647  0.7006264315571965
  0.9070990250536988  0.1418343338418503  0.2006264464871418
  0.6418343338620652  0.0929009898795645  0.9506264315824492
  0.8581656661311917  0.4070990250334840  0.4506264316161076
  0.9070990250536988  0.3581656661783647  0.0493735535381038
  0.5929009750069461  0.1418343338418503  0.5493735684007252
  0.8581656661311917  0.0929009898795645  0.7993735684259707
  0.6418343338620652  0.4070990250334840  0.2993735683754725
  0.0415362020472065  0.9301556195719853  0.2596373885494144
  0.4584637942666542  0.5698443804212787  0.7596373885157561
  0.0698443655082301  0.5415362057737829  0.5096373885746672
  0.4301556195517633  0.9584637942194811  0.0096373885241689
  0.4584637942666542  0.9301556195719853  0.4903626114421656
  0.0415362020472065  0.5698443804212787  0.9903626114926638
  0.4301556195517633  0.5415362057737829  0.2403626115010767
  0.0698443655082301  0.9584637942194811  0.7403626114674182
  0.5415362057737829  0.4301556195517633  0.7596373885157561
  0.9584637942194811  0.0698443655082301  0.2596373885494144
  0.5698443804212787  0.0415362020472065  0.0096373885241689
  0.9301556195719853  0.4584637942666542  0.5096373885746672
  0.9584637942194811  0.4301556195517633  0.9903626114926638
  0.5415362057737829  0.0698443655082301  0.4903626114421656
  0.9301556195719853  0.0415362020472065  0.7403626114674182
  0.5698443804212787  0.4584637942666542  0.2403626115010767
  0.0000000000000000 -0.0000000000000000  0.1992231992971148
  0.5000000000202149  0.5000000000202149  0.6992231843671695
  0.0000000000000000  0.5000000000202149  0.4492231844260806
  0.5000000000202149 -0.0000000000000000  0.9492231843924221
  0.5000000000202149 -0.0000000000000000  0.5507768155907451
  0.0000000000000000  0.5000000000202149  0.0507768007281308
  0.5000000000202149  0.5000000000202149  0.3007768155654995
  0.0000000000000000 -0.0000000000000000  0.8007768156159978
  0.0391078908833505  0.9285129528899415  0.3777698804983883
  0.4608921053631151  0.5714870471033154  0.8777698804647229
  0.0714870545632115  0.5391078648242666  0.6277698805236340
  0.4285129528697262  0.9608921351689974  0.1277698804731357
  0.4608921053631151  0.9285129528899415  0.3722301194931988
  0.0391078908833505  0.5714870471033154  0.8722301195436970
  0.4285129528697262  0.5391078648242666  0.1222301195521099
  0.0714870545632115  0.9608921351689974  0.6222301195184443
  0.5391078648242666  0.4285129528697262  0.8777698804647229
  0.9608921351689974  0.0714870545632115  0.3777698804983883
  0.5714870471033154  0.0391078908833505  0.1277698804731357
  0.9285129528899415  0.4608921053631151  0.6277698805236340
  0.9608921351689974  0.4285129528697262  0.8722301195436970
  0.5391078648242666  0.0714870545632115  0.3722301194931988
  0.9285129528899415  0.0391078908833505  0.6222301195184443
  0.5714870471033154  0.4608921053631151  0.1222301195521099
  0.0000000000000000 -0.0000000000000000  0.4380297889288425
  0.5000000000202149  0.5000000000202149  0.9380298187719003
  0.0000000000000000  0.5000000000202149  0.6880298187466476
  0.5000000000202149 -0.0000000000000000  0.1880297889877536
  0.5000000000202149 -0.0000000000000000  0.3119702110627447
  0.0000000000000000  0.5000000000202149  0.8119701812365197
  0.5000000000202149  0.5000000000202149  0.0619702110374920
  0.0000000000000000 -0.0000000000000000  0.5619701812112670
  0.3163162539451159  0.7499999999966320  0.1249999999705409
  0.1836837460751061  0.7499999999966320  0.6250000000210392
  0.2499999999764171  0.8163162539653308  0.3749999999957936
  0.2499999999764171  0.6836837460279332  0.8749999999621281
  0.8163162539653308  0.2499999999764171  0.6250000000210392
  0.6836837460279332  0.2499999999764171  0.1249999999705409
  0.7499999999966320  0.3163162539451159  0.8749999999621281
  0.7499999999966320  0.1836837460751061  0.3749999999957936
  0.0000000000000000 -0.0000000000000000  0.1063842979898983
  0.5000000000202149  0.5000000000202149  0.6063843203427343
  0.0000000000000000  0.5000000000202149  0.3563842905249220
  0.5000000000202149 -0.0000000000000000  0.8563843202838232
  0.5000000000202149 -0.0000000000000000  0.6436156796993441
  0.0000000000000000  0.5000000000202149  0.1436157095255691
  0.5000000000202149  0.5000000000202149  0.3936157094666580
  0.0000000000000000 -0.0000000000000000  0.8936156797245968
  0.0683940961969508  0.8698662782476019  0.4216994118746604
  0.4316059038232640  0.6301337217456551  0.9216994118410020
  0.1301337366856617  0.5683940663641176  0.6716994118157493
  0.3698662782273869  0.9316059336291465  0.1716994118494149
  0.4316059038232640  0.8698662782476019  0.3283005882010835
  0.0683940961969508  0.6301337217456551  0.8283005881674179
  0.3698662782273869  0.5683940663641176  0.0783005881758307
  0.1301337366856617  0.9316059336291465  0.5783005881421723
  0.5683940663641176  0.3698662782273869  0.9216994118410020
  0.9316059336291465  0.1301337366856617  0.4216994118746604
  0.6301337217456551  0.0683940961969508  0.1716994118494149
  0.8698662782476019  0.4316059038232640  0.6716994118157493
  0.9316059336291465  0.3698662782273869  0.8283005881674179
  0.5683940663641176  0.1301337366856617  0.3283005882010835
  0.8698662782476019  0.0683940961969508  0.5783005881421723
  0.6301337217456551  0.4316059038232640  0.0783005881758307
  0.2503925934711508  0.7499999999966320  0.1249999999705409
  0.2496073915888425  0.7499999999966320  0.6250000000210392
  0.2499999999764171  0.7503926083841994  0.3749999999957936
  0.2499999999764171  0.7496073916090646  0.8749999999621281
  0.7503926083841994  0.2499999999764171  0.6250000000210392
  0.7496073916090646  0.2499999999764171  0.1249999999705409
  0.7499999999966320  0.2503925934711508  0.8749999999621281
  0.7499999999966320  0.2496073915888425  0.3749999999957936
  0.1240504677669979  0.8777115676480850  0.1037592075903206
  0.3759495322532171  0.6222884323451791  0.6037592150468768
  0.1222884546979014  0.6240504677198248  0.3537592151057879
  0.3777115378422027  0.8759495322734393  0.8537592150721224
  0.3759495322532171  0.8777115676480850  0.6462407849110449
  0.1240504677669979  0.6222884323451791  0.1462407849447104
  0.3777115378422027  0.6240504677198248  0.3962407848857992
  0.1222884546979014  0.8759495322734393  0.8962407849362904
  0.6240504677198248  0.3777115378422027  0.6037592150468768
  0.8759495322734393  0.1222884546979014  0.1037592075903206
  0.6222884323451791  0.1240504677669979  0.8537592150721224
  0.8777115676480850  0.3759495322532171  0.3537592151057879
  0.8759495322734393  0.3777115378422027  0.1462407849447104
  0.6240504677198248  0.1222884546979014  0.6462407849110449
  0.8777115676480850  0.1240504677669979  0.8962407849362904
  0.6222884323451791  0.3759495322532171  0.3962407848857992
  0.1041465980588530  0.7838773314550871  0.2541384858530194
  0.3958534093740848  0.7161226685381770  0.7541384859035177
  0.2161226834107886  0.6041466204520124  0.5041384858782650
  0.2838773315022600  0.8958533795412446  0.0041384859119305
  0.3958534093740848  0.7838773314550871  0.4958615141385607
  0.1041465980588530  0.7161226685381770  0.9958615141049022
  0.2838773315022600  0.6041466204520124  0.2458615141133151
  0.2161226834107886  0.8958533795412446  0.7458615140796495
  0.6041466204520124  0.2838773315022600  0.7541384859035177
  0.8958533795412446  0.2161226834107886  0.2541384858530194
  0.7161226685381770  0.1041465980588530  0.0041384859119305
  0.7838773314550871  0.3958534093740848  0.5041384858782650
  0.8958533795412446  0.2838773315022600  0.9958615141049022
  0.6041466204520124  0.2161226834107886  0.4958615141385607
  0.7838773314550871  0.1041465980588530  0.7458615140796495
  0.7161226685381770  0.3958534093740848  0.2458615141133151
 
  0.00000000E+00  0.00000000E+00  0.00000000E+00
  0.00000000E+00  0.00000000E+00  0.00000000E+00
  0.00000000E+00  0.00000000E+00  0.00000000E+00
  0.00000000E+00  0.00000000E+00  0.00000000E+00
  0.00000000E+00  0.00000000E+00  0.00000000E+00
  0.00000000E+00  0.00000000E+00  0.00000000E+00
  0.00000000E+00  0.00000000E+00  0.00000000E+00
  0.00000000E+00  0.00000000E+00  0.00000000E+00
  0.00000000E+00  0.00000000E+00  0.00000000E+00
  0.00000000E+00  0.00000000E+00  0.00000000E+00
  0.00000000E+00  0.00000000E+00  0.00000000E+00
  0.00000000E+00  0.00000000E+00  0.00000000E+00
  0.00000000E+00  0.00000000E+00  0.00000000E+00
  0.00000000E+00  0.00000000E+00  0.00000000E+00
  0.00000000E+00  0.00000000E+00  0.00000000E+00
  0.00000000E+00  0.00000000E+00  0.00000000E+00
  0.00000000E+00  0.00000000E+00  0.00000000E+00
  0.00000000E+00  0.00000000E+00  0.00000000E+00
  0.00000000E+00  0.00000000E+00  0.00000000E+00
  0.00000000E+00  0.00000000E+00  0.00000000E+00
  0.00000000E+00  0.00000000E+00  0.00000000E+00
  0.00000000E+00  0.00000000E+00  0.00000000E+00
  0.00000000E+00  0.00000000E+00  0.00000000E+00
  0.00000000E+00  0.00000000E+00  0.00000000E+00
  0.00000000E+00  0.00000000E+00  0.00000000E+00
  0.00000000E+00  0.00000000E+00  0.00000000E+00
  0.00000000E+00  0.00000000E+00  0.00000000E+00
  0.00000000E+00  0.00000000E+00  0.00000000E+00
  0.00000000E+00  0.00000000E+00  0.00000000E+00
  0.00000000E+00  0.00000000E+00  0.00000000E+00
  0.00000000E+00  0.00000000E+00  0.00000000E+00
  0.00000000E+00  0.00000000E+00  0.00000000E+00
  0.00000000E+00  0.00000000E+00  0.00000000E+00
  0.00000000E+00  0.00000000E+00  0.00000000E+00
  0.00000000E+00  0.00000000E+00  0.00000000E+00
  0.00000000E+00  0.00000000E+00  0.00000000E+00
  0.00000000E+00  0.00000000E+00  0.00000000E+00
  0.00000000E+00  0.00000000E+00  0.00000000E+00
  0.00000000E+00  0.00000000E+00  0.00000000E+00
  0.00000000E+00  0.00000000E+00  0.00000000E+00
  0.00000000E+00  0.00000000E+00  0.00000000E+00
  0.00000000E+00  0.00000000E+00  0.00000000E+00
  0.00000000E+00  0.00000000E+00  0.00000000E+00
  0.00000000E+00  0.00000000E+00  0.00000000E+00
  0.00000000E+00  0.00000000E+00  0.00000000E+00
  0.00000000E+00  0.00000000E+00  0.00000000E+00
  0.00000000E+00  0.00000000E+00  0.00000000E+00
  0.00000000E+00  0.00000000E+00  0.00000000E+00
  0.00000000E+00  0.00000000E+00  0.00000000E+00
  0.00000000E+00  0.00000000E+00  0.00000000E+00
  0.00000000E+00  0.00000000E+00  0.00000000E+00
  0.00000000E+00  0.00000000E+00  0.00000000E+00
  0.00000000E+00  0.00000000E+00  0.00000000E+00
  0.00000000E+00  0.00000000E+00  0.00000000E+00
  0.00000000E+00  0.00000000E+00  0.00000000E+00
  0.00000000E+00  0.00000000E+00  0.00000000E+00
  0.00000000E+00  0.00000000E+00  0.00000000E+00
  0.00000000E+00  0.00000000E+00  0.00000000E+00
  0.00000000E+00  0.00000000E+00  0.00000000E+00
  0.00000000E+00  0.00000000E+00  0.00000000E+00
  0.00000000E+00  0.00000000E+00  0.00000000E+00
  0.00000000E+00  0.00000000E+00  0.00000000E+00
  0.00000000E+00  0.00000000E+00  0.00000000E+00
  0.00000000E+00  0.00000000E+00  0.00000000E+00
  0.00000000E+00  0.00000000E+00  0.00000000E+00
  0.00000000E+00  0.00000000E+00  0.00000000E+00
  0.00000000E+00  0.00000000E+00  0.00000000E+00
  0.00000000E+00  0.00000000E+00  0.00000000E+00
  0.00000000E+00  0.00000000E+00  0.00000000E+00
  0.00000000E+00  0.00000000E+00  0.00000000E+00
  0.00000000E+00  0.00000000E+00  0.00000000E+00
  0.00000000E+00  0.00000000E+00  0.00000000E+00
  0.00000000E+00  0.00000000E+00  0.00000000E+00
  0.00000000E+00  0.00000000E+00  0.00000000E+00
  0.00000000E+00  0.00000000E+00  0.00000000E+00
  0.00000000E+00  0.00000000E+00  0.00000000E+00
  0.00000000E+00  0.00000000E+00  0.00000000E+00
  0.00000000E+00  0.00000000E+00  0.00000000E+00
  0.00000000E+00  0.00000000E+00  0.00000000E+00
  0.00000000E+00  0.00000000E+00  0.00000000E+00
  0.00000000E+00  0.00000000E+00  0.00000000E+00
  0.00000000E+00  0.00000000E+00  0.00000000E+00
  0.00000000E+00  0.00000000E+00  0.00000000E+00
  0.00000000E+00  0.00000000E+00  0.00000000E+00
  0.00000000E+00  0.00000000E+00  0.00000000E+00
  0.00000000E+00  0.00000000E+00  0.00000000E+00
  0.00000000E+00  0.00000000E+00  0.00000000E+00
  0.00000000E+00  0.00000000E+00  0.00000000E+00
  0.00000000E+00  0.00000000E+00  0.00000000E+00
  0.00000000E+00  0.00000000E+00  0.00000000E+00
  0.00000000E+00  0.00000000E+00  0.00000000E+00
  0.00000000E+00  0.00000000E+00  0.00000000E+00
  0.00000000E+00  0.00000000E+00  0.00000000E+00
  0.00000000E+00  0.00000000E+00  0.00000000E+00
  0.00000000E+00  0.00000000E+00  0.00000000E+00
  0.00000000E+00  0.00000000E+00  0.00000000E+00
  0.00000000E+00  0.00000000E+00  0.00000000E+00
  0.00000000E+00  0.00000000E+00  0.00000000E+00
  0.00000000E+00  0.00000000E+00  0.00000000E+00
  0.00000000E+00  0.00000000E+00  0.00000000E+00
  0.00000000E+00  0.00000000E+00  0.00000000E+00
  0.00000000E+00  0.00000000E+00  0.00000000E+00
  0.00000000E+00  0.00000000E+00  0.00000000E+00
  0.00000000E+00  0.00000000E+00  0.00000000E+00
  0.00000000E+00  0.00000000E+00  0.00000000E+00
  0.00000000E+00  0.00000000E+00  0.00000000E+00
  0.00000000E+00  0.00000000E+00  0.00000000E+00
  0.00000000E+00  0.00000000E+00  0.00000000E+00
  0.00000000E+00  0.00000000E+00  0.00000000E+00
  0.00000000E+00  0.00000000E+00  0.00000000E+00
  0.00000000E+00  0.00000000E+00  0.00000000E+00
  0.00000000E+00  0.00000000E+00  0.00000000E+00
  0.00000000E+00  0.00000000E+00  0.00000000E+00
  0.00000000E+00  0.00000000E+00  0.00000000E+00
  0.00000000E+00  0.00000000E+00  0.00000000E+00
  0.00000000E+00  0.00000000E+00  0.00000000E+00
  0.00000000E+00  0.00000000E+00  0.00000000E+00
  0.00000000E+00  0.00000000E+00  0.00000000E+00
  0.00000000E+00  0.00000000E+00  0.00000000E+00
  0.00000000E+00  0.00000000E+00  0.00000000E+00
  0.00000000E+00  0.00000000E+00  0.00000000E+00
  0.00000000E+00  0.00000000E+00  0.00000000E+00
  0.00000000E+00  0.00000000E+00  0.00000000E+00
  0.00000000E+00  0.00000000E+00  0.00000000E+00
  0.00000000E+00  0.00000000E+00  0.00000000E+00
  0.00000000E+00  0.00000000E+00  0.00000000E+00
  0.00000000E+00  0.00000000E+00  0.00000000E+00
  0.00000000E+00  0.00000000E+00  0.00000000E+00
  0.00000000E+00  0.00000000E+00  0.00000000E+00
  0.00000000E+00  0.00000000E+00  0.00000000E+00
  0.00000000E+00  0.00000000E+00  0.00000000E+00
  0.00000000E+00  0.00000000E+00  0.00000000E+00
  0.00000000E+00  0.00000000E+00  0.00000000E+00
  0.00000000E+00  0.00000000E+00  0.00000000E+00
  0.00000000E+00  0.00000000E+00  0.00000000E+00
  0.00000000E+00  0.00000000E+00  0.00000000E+00
  0.00000000E+00  0.00000000E+00  0.00000000E+00
  0.00000000E+00  0.00000000E+00  0.00000000E+00
  0.00000000E+00  0.00000000E+00  0.00000000E+00
  0.00000000E+00  0.00000000E+00  0.00000000E+00
  0.00000000E+00  0.00000000E+00  0.00000000E+00
  0.00000000E+00  0.00000000E+00  0.00000000E+00
  0.00000000E+00  0.00000000E+00  0.00000000E+00
  0.00000000E+00  0.00000000E+00  0.00000000E+00
